*SPEF "ieee 1481-1999"
*DESIGN "signal_processor"
*DATE "00:06:45 Monday August 10, 2026"
*VENDOR "The OpenROAD Project"
*PROGRAM "OpenROAD"
*VERSION "26Q1-1024-gdcf36133a"
*DESIGN_FLOW "NAME_SCOPE LOCAL" "PIN_CAP NONE"
*DIVIDER /
*DELIMITER :
*BUS_DELIMITER []
*T_UNIT 1 NS
*C_UNIT 1 PF
*R_UNIT 1 OHM
*L_UNIT 1 HENRY

*NAME_MAP
*3 clk
*4 comp_raw
*5 dir
*6 jitter_flag
*7 latch_phase270
*8 latch_phase270_ack
*9 latch_phase90
*10 latch_phase90_ack
*11 move_en
*12 phase_state[0]
*13 phase_state[1]
*14 rst_n
*15 soft_rst_n
*16 votes_in_phase[0]
*17 votes_in_phase[1]
*18 votes_in_phase[2]
*19 votes_in_phase[3]
*20 votes_out_phase[0]
*21 votes_out_phase[1]
*22 votes_out_phase[2]
*23 votes_out_phase[3]
*24 _000_
*25 _001_
*26 _002_
*27 _003_
*28 _004_
*29 _005_
*30 _006_
*31 _007_
*32 _008_
*33 _009_
*34 _010_
*35 _011_
*36 _012_
*37 _013_
*38 _014_
*39 _015_
*40 _016_
*41 _017_
*42 _018_
*43 _019_
*44 _020_
*45 _021_
*46 _022_
*47 _023_
*48 _024_
*49 _025_
*50 _026_
*51 _027_
*52 _028_
*53 _029_
*54 _030_
*55 _031_
*56 _032_
*57 _033_
*58 _034_
*59 _035_
*60 _036_
*61 _037_
*62 _038_
*63 _039_
*64 _040_
*65 _041_
*66 _042_
*67 _043_
*68 _044_
*69 _045_
*70 _046_
*71 _047_
*72 _048_
*73 _049_
*74 _050_
*75 _051_
*76 _052_
*77 _053_
*78 _054_
*79 _055_
*80 _056_
*81 _057_
*82 _058_
*83 _059_
*84 _060_
*85 _061_
*86 _062_
*87 _063_
*88 _064_
*89 _065_
*90 _066_
*91 _067_
*92 _068_
*93 _069_
*94 _070_
*95 _071_
*96 _072_
*97 _073_
*98 _074_
*99 _075_
*100 _076_
*101 _077_
*102 _078_
*103 _079_
*104 _080_
*105 _081_
*106 _082_
*107 _083_
*108 _084_
*109 _085_
*110 _086_
*111 _087_
*112 _088_
*113 _089_
*114 _090_
*115 _091_
*116 _092_
*117 _093_
*118 _094_
*119 _095_
*120 _096_
*121 _097_
*122 _098_
*123 _099_
*124 _100_
*125 _101_
*126 _102_
*127 _103_
*128 _104_
*129 _105_
*130 _106_
*131 _107_
*132 clknet_0_clk
*133 clknet_3_0__leaf_clk
*134 clknet_3_1__leaf_clk
*135 clknet_3_2__leaf_clk
*136 clknet_3_3__leaf_clk
*137 clknet_3_4__leaf_clk
*138 clknet_3_5__leaf_clk
*139 clknet_3_6__leaf_clk
*140 clknet_3_7__leaf_clk
*141 cnt_in\[0\]
*142 cnt_in\[1\]
*143 cnt_in\[2\]
*144 cnt_in\[3\]
*145 cnt_out\[0\]
*146 cnt_out\[1\]
*147 cnt_out\[2\]
*148 cnt_out\[3\]
*149 comp_pipe\[0\]
*150 comp_pipe\[1\]
*151 comp_pipe\[2\]
*152 comp_pipe\[3\]
*153 cycle_count\[0\]
*154 cycle_count\[1\]
*155 cycle_count\[2\]
*156 cycle_count\[3\]
*157 net1
*158 net10
*159 net11
*160 net12
*161 net13
*162 net14
*163 net15
*164 net16
*165 net17
*166 net18
*167 net19
*168 net2
*169 net20
*170 net21
*171 net22
*172 net23
*173 net24
*174 net25
*175 net26
*176 net27
*177 net28
*178 net29
*179 net3
*180 net30
*181 net31
*182 net32
*183 net33
*184 net34
*185 net35
*186 net36
*187 net37
*188 net38
*189 net39
*190 net4
*191 net40
*192 net41
*193 net42
*194 net43
*195 net44
*196 net45
*197 net46
*198 net47
*199 net48
*200 net49
*201 net5
*202 net50
*203 net51
*204 net6
*205 net7
*206 net8
*207 net9
*208 s270_pipe\[0\]
*209 s270_pipe\[1\]
*210 s270_pipe\[2\]
*211 s270_pipe\[3\]
*212 s90
*213 s90_pipe\[0\]
*214 s90_pipe\[1\]
*215 s90_pipe\[2\]
*216 s90_pipe\[3\]
*217 s90_valid
*218 FILLER_0_104
*219 FILLER_0_138
*220 FILLER_0_172
*221 FILLER_0_176
*222 FILLER_0_196
*223 FILLER_0_2
*224 FILLER_0_206
*225 FILLER_0_208
*226 FILLER_0_36
*227 FILLER_0_44
*228 FILLER_0_48
*229 FILLER_0_50
*230 FILLER_0_59
*231 FILLER_0_67
*232 FILLER_0_70
*233 FILLER_10_101
*234 FILLER_10_107
*235 FILLER_10_125
*236 FILLER_10_141
*237 FILLER_10_145
*238 FILLER_10_177
*239 FILLER_10_179
*240 FILLER_10_2
*241 FILLER_10_215
*242 FILLER_10_217
*243 FILLER_10_224
*244 FILLER_10_34
*245 FILLER_10_37
*246 FILLER_11_104
*247 FILLER_11_120
*248 FILLER_11_134
*249 FILLER_11_142
*250 FILLER_11_2
*251 FILLER_11_212
*252 FILLER_11_216
*253 FILLER_11_66
*254 FILLER_11_72
*255 FILLER_12_101
*256 FILLER_12_107
*257 FILLER_12_111
*258 FILLER_12_113
*259 FILLER_12_148
*260 FILLER_12_177
*261 FILLER_12_2
*262 FILLER_12_34
*263 FILLER_12_37
*264 FILLER_13_104
*265 FILLER_13_112
*266 FILLER_13_139
*267 FILLER_13_2
*268 FILLER_13_207
*269 FILLER_13_209
*270 FILLER_13_220
*271 FILLER_13_224
*272 FILLER_13_66
*273 FILLER_13_72
*274 FILLER_14_101
*275 FILLER_14_107
*276 FILLER_14_114
*277 FILLER_14_122
*278 FILLER_14_174
*279 FILLER_14_2
*280 FILLER_14_211
*281 FILLER_14_219
*282 FILLER_14_223
*283 FILLER_14_34
*284 FILLER_14_37
*285 FILLER_15_139
*286 FILLER_15_165
*287 FILLER_15_2
*288 FILLER_15_201
*289 FILLER_15_203
*290 FILLER_15_209
*291 FILLER_15_212
*292 FILLER_15_216
*293 FILLER_15_66
*294 FILLER_15_72
*295 FILLER_15_88
*296 FILLER_15_96
*297 FILLER_16_101
*298 FILLER_16_107
*299 FILLER_16_115
*300 FILLER_16_117
*301 FILLER_16_124
*302 FILLER_16_177
*303 FILLER_16_2
*304 FILLER_16_34
*305 FILLER_16_37
*306 FILLER_17_104
*307 FILLER_17_120
*308 FILLER_17_151
*309 FILLER_17_190
*310 FILLER_17_2
*311 FILLER_17_202
*312 FILLER_17_209
*313 FILLER_17_212
*314 FILLER_17_220
*315 FILLER_17_224
*316 FILLER_17_66
*317 FILLER_17_72
*318 FILLER_18_101
*319 FILLER_18_107
*320 FILLER_18_115
*321 FILLER_18_162
*322 FILLER_18_182
*323 FILLER_18_2
*324 FILLER_18_214
*325 FILLER_18_216
*326 FILLER_18_34
*327 FILLER_18_37
*328 FILLER_19_104
*329 FILLER_19_120
*330 FILLER_19_122
*331 FILLER_19_135
*332 FILLER_19_139
*333 FILLER_19_142
*334 FILLER_19_175
*335 FILLER_19_183
*336 FILLER_19_187
*337 FILLER_19_189
*338 FILLER_19_198
*339 FILLER_19_2
*340 FILLER_19_202
*341 FILLER_19_209
*342 FILLER_19_212
*343 FILLER_19_220
*344 FILLER_19_224
*345 FILLER_19_66
*346 FILLER_19_72
*347 FILLER_1_136
*348 FILLER_1_142
*349 FILLER_1_158
*350 FILLER_1_162
*351 FILLER_1_2
*352 FILLER_1_206
*353 FILLER_1_212
*354 FILLER_1_216
*355 FILLER_1_66
*356 FILLER_1_72
*357 FILLER_20_101
*358 FILLER_20_107
*359 FILLER_20_174
*360 FILLER_20_177
*361 FILLER_20_185
*362 FILLER_20_189
*363 FILLER_20_2
*364 FILLER_20_34
*365 FILLER_20_37
*366 FILLER_21_132
*367 FILLER_21_142
*368 FILLER_21_155
*369 FILLER_21_174
*370 FILLER_21_198
*371 FILLER_21_2
*372 FILLER_21_202
*373 FILLER_21_209
*374 FILLER_21_212
*375 FILLER_21_216
*376 FILLER_21_66
*377 FILLER_21_72
*378 FILLER_21_88
*379 FILLER_21_96
*380 FILLER_22_102
*381 FILLER_22_104
*382 FILLER_22_107
*383 FILLER_22_139
*384 FILLER_22_177
*385 FILLER_22_181
*386 FILLER_22_2
*387 FILLER_22_224
*388 FILLER_22_34
*389 FILLER_22_37
*390 FILLER_22_69
*391 FILLER_22_85
*392 FILLER_22_89
*393 FILLER_22_98
*394 FILLER_23_139
*395 FILLER_23_142
*396 FILLER_23_150
*397 FILLER_23_158
*398 FILLER_23_2
*399 FILLER_23_66
*400 FILLER_23_72
*401 FILLER_23_88
*402 FILLER_24_107
*403 FILLER_24_124
*404 FILLER_24_140
*405 FILLER_24_177
*406 FILLER_24_187
*407 FILLER_24_2
*408 FILLER_24_222
*409 FILLER_24_224
*410 FILLER_24_34
*411 FILLER_24_37
*412 FILLER_24_69
*413 FILLER_25_115
*414 FILLER_25_119
*415 FILLER_25_128
*416 FILLER_25_136
*417 FILLER_25_176
*418 FILLER_25_184
*419 FILLER_25_2
*420 FILLER_25_209
*421 FILLER_25_212
*422 FILLER_25_220
*423 FILLER_25_224
*424 FILLER_25_66
*425 FILLER_25_72
*426 FILLER_25_80
*427 FILLER_26_177
*428 FILLER_26_179
*429 FILLER_26_2
*430 FILLER_26_222
*431 FILLER_26_224
*432 FILLER_26_34
*433 FILLER_26_37
*434 FILLER_26_69
*435 FILLER_26_77
*436 FILLER_27_106
*437 FILLER_27_127
*438 FILLER_27_139
*439 FILLER_27_142
*440 FILLER_27_158
*441 FILLER_27_2
*442 FILLER_27_212
*443 FILLER_27_216
*444 FILLER_27_66
*445 FILLER_28_101
*446 FILLER_28_123
*447 FILLER_28_127
*448 FILLER_28_129
*449 FILLER_28_172
*450 FILLER_28_174
*451 FILLER_28_177
*452 FILLER_28_181
*453 FILLER_28_2
*454 FILLER_28_224
*455 FILLER_28_34
*456 FILLER_28_37
*457 FILLER_28_53
*458 FILLER_28_61
*459 FILLER_28_65
*460 FILLER_29_2
*461 FILLER_29_220
*462 FILLER_29_224
*463 FILLER_29_34
*464 FILLER_29_50
*465 FILLER_29_58
*466 FILLER_2_101
*467 FILLER_2_107
*468 FILLER_2_139
*469 FILLER_2_2
*470 FILLER_2_34
*471 FILLER_2_37
*472 FILLER_30_115
*473 FILLER_30_153
*474 FILLER_30_173
*475 FILLER_30_2
*476 FILLER_30_34
*477 FILLER_30_37
*478 FILLER_30_53
*479 FILLER_30_61
*480 FILLER_31_124
*481 FILLER_31_132
*482 FILLER_31_138
*483 FILLER_31_146
*484 FILLER_31_148
*485 FILLER_31_157
*486 FILLER_31_161
*487 FILLER_31_180
*488 FILLER_31_184
*489 FILLER_31_191
*490 FILLER_31_193
*491 FILLER_31_2
*492 FILLER_31_202
*493 FILLER_31_206
*494 FILLER_31_208
*495 FILLER_31_36
*496 FILLER_31_40
*497 FILLER_31_47
*498 FILLER_31_63
*499 FILLER_31_67
*500 FILLER_31_70
*501 FILLER_3_100
*502 FILLER_3_102
*503 FILLER_3_137
*504 FILLER_3_139
*505 FILLER_3_142
*506 FILLER_3_2
*507 FILLER_3_203
*508 FILLER_3_207
*509 FILLER_3_209
*510 FILLER_3_212
*511 FILLER_3_216
*512 FILLER_3_66
*513 FILLER_3_72
*514 FILLER_3_88
*515 FILLER_3_96
*516 FILLER_4_119
*517 FILLER_4_127
*518 FILLER_4_129
*519 FILLER_4_164
*520 FILLER_4_166
*521 FILLER_4_177
*522 FILLER_4_179
*523 FILLER_4_2
*524 FILLER_4_34
*525 FILLER_4_37
*526 FILLER_5_125
*527 FILLER_5_129
*528 FILLER_5_190
*529 FILLER_5_192
*530 FILLER_5_2
*531 FILLER_5_209
*532 FILLER_5_220
*533 FILLER_5_224
*534 FILLER_5_66
*535 FILLER_5_72
*536 FILLER_5_88
*537 FILLER_5_90
*538 FILLER_6_107
*539 FILLER_6_170
*540 FILLER_6_177
*541 FILLER_6_2
*542 FILLER_6_34
*543 FILLER_6_37
*544 FILLER_6_69
*545 FILLER_6_85
*546 FILLER_6_93
*547 FILLER_7_139
*548 FILLER_7_142
*549 FILLER_7_150
*550 FILLER_7_2
*551 FILLER_7_66
*552 FILLER_7_72
*553 FILLER_7_88
*554 FILLER_8_142
*555 FILLER_8_150
*556 FILLER_8_154
*557 FILLER_8_2
*558 FILLER_8_34
*559 FILLER_8_37
*560 FILLER_8_69
*561 FILLER_8_85
*562 FILLER_8_93
*563 FILLER_8_95
*564 FILLER_9_132
*565 FILLER_9_134
*566 FILLER_9_139
*567 FILLER_9_142
*568 FILLER_9_146
*569 FILLER_9_2
*570 FILLER_9_207
*571 FILLER_9_209
*572 FILLER_9_212
*573 FILLER_9_220
*574 FILLER_9_224
*575 FILLER_9_66
*576 FILLER_9_72
*577 FILLER_9_80
*578 FILLER_9_84
*579 PHY_EDGE_ROW_0_Left_32
*580 PHY_EDGE_ROW_0_Right_0
*581 PHY_EDGE_ROW_10_Left_42
*582 PHY_EDGE_ROW_10_Right_10
*583 PHY_EDGE_ROW_11_Left_43
*584 PHY_EDGE_ROW_11_Right_11
*585 PHY_EDGE_ROW_12_Left_44
*586 PHY_EDGE_ROW_12_Right_12
*587 PHY_EDGE_ROW_13_Left_45
*588 PHY_EDGE_ROW_13_Right_13
*589 PHY_EDGE_ROW_14_Left_46
*590 PHY_EDGE_ROW_14_Right_14
*591 PHY_EDGE_ROW_15_Left_47
*592 PHY_EDGE_ROW_15_Right_15
*593 PHY_EDGE_ROW_16_Left_48
*594 PHY_EDGE_ROW_16_Right_16
*595 PHY_EDGE_ROW_17_Left_49
*596 PHY_EDGE_ROW_17_Right_17
*597 PHY_EDGE_ROW_18_Left_50
*598 PHY_EDGE_ROW_18_Right_18
*599 PHY_EDGE_ROW_19_Left_51
*600 PHY_EDGE_ROW_19_Right_19
*601 PHY_EDGE_ROW_1_Left_33
*602 PHY_EDGE_ROW_1_Right_1
*603 PHY_EDGE_ROW_20_Left_52
*604 PHY_EDGE_ROW_20_Right_20
*605 PHY_EDGE_ROW_21_Left_53
*606 PHY_EDGE_ROW_21_Right_21
*607 PHY_EDGE_ROW_22_Left_54
*608 PHY_EDGE_ROW_22_Right_22
*609 PHY_EDGE_ROW_23_Left_55
*610 PHY_EDGE_ROW_23_Right_23
*611 PHY_EDGE_ROW_24_Left_56
*612 PHY_EDGE_ROW_24_Right_24
*613 PHY_EDGE_ROW_25_Left_57
*614 PHY_EDGE_ROW_25_Right_25
*615 PHY_EDGE_ROW_26_Left_58
*616 PHY_EDGE_ROW_26_Right_26
*617 PHY_EDGE_ROW_27_Left_59
*618 PHY_EDGE_ROW_27_Right_27
*619 PHY_EDGE_ROW_28_Left_60
*620 PHY_EDGE_ROW_28_Right_28
*621 PHY_EDGE_ROW_29_Left_61
*622 PHY_EDGE_ROW_29_Right_29
*623 PHY_EDGE_ROW_2_Left_34
*624 PHY_EDGE_ROW_2_Right_2
*625 PHY_EDGE_ROW_30_Left_62
*626 PHY_EDGE_ROW_30_Right_30
*627 PHY_EDGE_ROW_31_Left_63
*628 PHY_EDGE_ROW_31_Right_31
*629 PHY_EDGE_ROW_3_Left_35
*630 PHY_EDGE_ROW_3_Right_3
*631 PHY_EDGE_ROW_4_Left_36
*632 PHY_EDGE_ROW_4_Right_4
*633 PHY_EDGE_ROW_5_Left_37
*634 PHY_EDGE_ROW_5_Right_5
*635 PHY_EDGE_ROW_6_Left_38
*636 PHY_EDGE_ROW_6_Right_6
*637 PHY_EDGE_ROW_7_Left_39
*638 PHY_EDGE_ROW_7_Right_7
*639 PHY_EDGE_ROW_8_Left_40
*640 PHY_EDGE_ROW_8_Right_8
*641 PHY_EDGE_ROW_9_Left_41
*642 PHY_EDGE_ROW_9_Right_9
*643 TAP_TAPCELL_ROW_0_64
*644 TAP_TAPCELL_ROW_0_65
*645 TAP_TAPCELL_ROW_0_66
*646 TAP_TAPCELL_ROW_0_67
*647 TAP_TAPCELL_ROW_0_68
*648 TAP_TAPCELL_ROW_0_69
*649 TAP_TAPCELL_ROW_10_97
*650 TAP_TAPCELL_ROW_10_98
*651 TAP_TAPCELL_ROW_10_99
*652 TAP_TAPCELL_ROW_11_100
*653 TAP_TAPCELL_ROW_11_101
*654 TAP_TAPCELL_ROW_11_102
*655 TAP_TAPCELL_ROW_12_103
*656 TAP_TAPCELL_ROW_12_104
*657 TAP_TAPCELL_ROW_12_105
*658 TAP_TAPCELL_ROW_13_106
*659 TAP_TAPCELL_ROW_13_107
*660 TAP_TAPCELL_ROW_13_108
*661 TAP_TAPCELL_ROW_14_109
*662 TAP_TAPCELL_ROW_14_110
*663 TAP_TAPCELL_ROW_14_111
*664 TAP_TAPCELL_ROW_15_112
*665 TAP_TAPCELL_ROW_15_113
*666 TAP_TAPCELL_ROW_15_114
*667 TAP_TAPCELL_ROW_16_115
*668 TAP_TAPCELL_ROW_16_116
*669 TAP_TAPCELL_ROW_16_117
*670 TAP_TAPCELL_ROW_17_118
*671 TAP_TAPCELL_ROW_17_119
*672 TAP_TAPCELL_ROW_17_120
*673 TAP_TAPCELL_ROW_18_121
*674 TAP_TAPCELL_ROW_18_122
*675 TAP_TAPCELL_ROW_18_123
*676 TAP_TAPCELL_ROW_19_124
*677 TAP_TAPCELL_ROW_19_125
*678 TAP_TAPCELL_ROW_19_126
*679 TAP_TAPCELL_ROW_1_70
*680 TAP_TAPCELL_ROW_1_71
*681 TAP_TAPCELL_ROW_1_72
*682 TAP_TAPCELL_ROW_20_127
*683 TAP_TAPCELL_ROW_20_128
*684 TAP_TAPCELL_ROW_20_129
*685 TAP_TAPCELL_ROW_21_130
*686 TAP_TAPCELL_ROW_21_131
*687 TAP_TAPCELL_ROW_21_132
*688 TAP_TAPCELL_ROW_22_133
*689 TAP_TAPCELL_ROW_22_134
*690 TAP_TAPCELL_ROW_22_135
*691 TAP_TAPCELL_ROW_23_136
*692 TAP_TAPCELL_ROW_23_137
*693 TAP_TAPCELL_ROW_23_138
*694 TAP_TAPCELL_ROW_24_139
*695 TAP_TAPCELL_ROW_24_140
*696 TAP_TAPCELL_ROW_24_141
*697 TAP_TAPCELL_ROW_25_142
*698 TAP_TAPCELL_ROW_25_143
*699 TAP_TAPCELL_ROW_25_144
*700 TAP_TAPCELL_ROW_26_145
*701 TAP_TAPCELL_ROW_26_146
*702 TAP_TAPCELL_ROW_26_147
*703 TAP_TAPCELL_ROW_27_148
*704 TAP_TAPCELL_ROW_27_149
*705 TAP_TAPCELL_ROW_27_150
*706 TAP_TAPCELL_ROW_28_151
*707 TAP_TAPCELL_ROW_28_152
*708 TAP_TAPCELL_ROW_28_153
*709 TAP_TAPCELL_ROW_29_154
*710 TAP_TAPCELL_ROW_29_155
*711 TAP_TAPCELL_ROW_29_156
*712 TAP_TAPCELL_ROW_2_73
*713 TAP_TAPCELL_ROW_2_74
*714 TAP_TAPCELL_ROW_2_75
*715 TAP_TAPCELL_ROW_30_157
*716 TAP_TAPCELL_ROW_30_158
*717 TAP_TAPCELL_ROW_30_159
*718 TAP_TAPCELL_ROW_31_160
*719 TAP_TAPCELL_ROW_31_161
*720 TAP_TAPCELL_ROW_31_162
*721 TAP_TAPCELL_ROW_31_163
*722 TAP_TAPCELL_ROW_31_164
*723 TAP_TAPCELL_ROW_31_165
*724 TAP_TAPCELL_ROW_3_76
*725 TAP_TAPCELL_ROW_3_77
*726 TAP_TAPCELL_ROW_3_78
*727 TAP_TAPCELL_ROW_4_79
*728 TAP_TAPCELL_ROW_4_80
*729 TAP_TAPCELL_ROW_4_81
*730 TAP_TAPCELL_ROW_5_82
*731 TAP_TAPCELL_ROW_5_83
*732 TAP_TAPCELL_ROW_5_84
*733 TAP_TAPCELL_ROW_6_85
*734 TAP_TAPCELL_ROW_6_86
*735 TAP_TAPCELL_ROW_6_87
*736 TAP_TAPCELL_ROW_7_88
*737 TAP_TAPCELL_ROW_7_89
*738 TAP_TAPCELL_ROW_7_90
*739 TAP_TAPCELL_ROW_8_91
*740 TAP_TAPCELL_ROW_8_92
*741 TAP_TAPCELL_ROW_8_93
*742 TAP_TAPCELL_ROW_9_94
*743 TAP_TAPCELL_ROW_9_95
*744 TAP_TAPCELL_ROW_9_96
*745 _108_
*746 _109_
*747 _110_
*748 _111_
*749 _112_
*750 _113_
*751 _114_
*752 _115_
*753 _116_
*754 _117_
*755 _118_
*756 _119_
*757 _120_
*758 _121_
*759 _122_
*760 _123_
*761 _124_
*762 _125_
*763 _126_
*764 _127_
*765 _128_
*766 _129_
*767 _130_
*768 _131_
*769 _132_
*770 _133_
*771 _134_
*772 _135_
*773 _136_
*774 _137_
*775 _138_
*776 _139_
*777 _140_
*778 _141_
*779 _142_
*780 _143_
*781 _144_
*782 _145_
*783 _146_
*784 _147_
*785 _148_
*786 _149_
*787 _150_
*788 _151_
*789 _152_
*790 _153_
*791 _154_
*792 _155_
*793 _156_
*794 _157_
*795 _158_
*796 _159_
*797 _160_
*798 _161_
*799 _162_
*800 _163_
*801 _164_
*802 _165_
*803 _166_
*804 _167_
*805 _168_
*806 _169_
*807 _170_
*808 _171_
*809 _172_
*810 _173_
*811 _174_
*812 _175_
*813 _176_
*814 _177_
*815 _178_
*816 _179_
*817 _180_
*818 _181_
*819 _182_
*820 _183_
*821 _184_
*822 _185_
*823 _186_
*824 _187_
*825 _188_
*826 _189_
*827 _190_
*828 _191_
*829 _192_
*830 _193_
*831 _194_
*832 _195_
*833 _196_
*834 _197_
*835 _198_
*836 _199_
*837 _200_
*838 _201_
*839 _202_
*840 _203_
*841 _204_
*842 _205_
*843 _206_
*844 _207_
*845 _208_
*846 _209_
*847 _210_
*848 _211_
*849 _212_
*850 _213_
*851 _214_
*852 _215_
*853 _216_
*854 _217_
*855 _218_
*856 _219_
*857 _220_
*858 _221_
*859 _222_
*860 _223_
*861 _224_
*862 _225_
*863 _226_
*864 _227_
*865 _228_
*866 _229_
*867 _230_
*868 _231_
*869 _232_
*870 _233_
*871 _234_
*872 _235_
*873 _236_
*874 _237_
*875 _238_
*876 _239_
*877 _240_
*878 _241_
*879 _242_
*880 _243_
*881 _244_
*882 _245_
*883 _246_
*884 _247_
*885 _248_
*886 _249_
*887 _250_
*888 _251_
*889 _252_
*890 _253_
*891 _254_
*892 _255_
*893 _256_
*894 clkbuf_0_clk
*895 clkbuf_3_0__f_clk
*896 clkbuf_3_1__f_clk
*897 clkbuf_3_2__f_clk
*898 clkbuf_3_3__f_clk
*899 clkbuf_3_4__f_clk
*900 clkbuf_3_5__f_clk
*901 clkbuf_3_6__f_clk
*902 clkbuf_3_7__f_clk
*903 clkload0
*904 clkload1
*905 clkload2
*906 clkload3
*907 clkload4
*908 clkload5
*909 clkload6
*910 fanout21
*911 fanout27
*912 fanout29
*913 fanout33
*914 fanout37
*915 fanout41
*916 fanout45
*917 fanout49
*918 input1
*919 input2
*920 input3
*921 input4
*922 input5
*923 load_slew23
*924 load_slew25
*925 load_slew26
*926 load_slew28
*927 load_slew30
*928 load_slew31
*929 load_slew34
*930 load_slew36
*931 load_slew38
*932 load_slew39
*933 load_slew40
*934 load_slew42
*935 load_slew43
*936 load_slew44
*937 load_slew46
*938 load_slew47
*939 load_slew48
*940 output10
*941 output11
*942 output12
*943 output13
*944 output14
*945 output15
*946 output16
*947 output17
*948 output18
*949 output19
*950 output20
*951 output6
*952 output7
*953 output8
*954 output9
*955 wire22
*956 wire24
*957 wire32
*958 wire35
*959 wire50
*960 wire51

*PORTS
clk I
comp_raw I
dir O
jitter_flag O
latch_phase270 I
latch_phase270_ack O
latch_phase90 I
latch_phase90_ack O
move_en O
phase_state[0] O
phase_state[1] O
rst_n I
soft_rst_n I
votes_in_phase[0] O
votes_in_phase[1] O
votes_in_phase[2] O
votes_in_phase[3] O
votes_out_phase[0] O
votes_out_phase[1] O
votes_out_phase[2] O
votes_out_phase[3] O

*D_NET *3 0.0137874
*CONN
*P clk I
*I *894:I I *D gf180mcu_fd_sc_mcu7t5v0__clkbuf_16
*CAP
1 clk 0.00531252
2 *894:I 7.5591e-05
3 *3:22 0.00538811
4 *894:I *790:A2 4.28586e-06
5 *894:I *134:21 3.29176e-06
6 *894:I *216:14 0
7 *894:I *217:8 9.27021e-05
8 *3:22 *754:A2 0
9 *3:22 *758:A2 0.000302028
10 *3:22 *810:A2 0.000221732
11 *3:22 *813:A1 3.73627e-05
12 *3:22 *813:A2 0.000140809
13 *3:22 *880:D 0.000306482
14 *3:22 *887:D 0
15 *3:22 *890:RN 0.000134113
16 *3:22 *893:CLK 0.000141888
17 *3:22 *914:I 0.000780894
18 *3:22 *132:33 0
19 *3:22 *132:37 0
20 *3:22 *132:48 0
21 *3:22 *132:53 0
22 *3:22 *134:21 2.79765e-05
23 *3:22 *176:42 0.000111992
24 *3:22 *199:8 0.000585069
25 *3:22 *199:10 0.00012053
26 *3:22 *203:19 0
27 *3:22 *203:42 0
28 *3:22 *216:14 0
*RES
1 clk *3:22 49.3859 
2 *3:22 *894:I 5.11614 
*END

*D_NET *4 0.00200396
*CONN
*P comp_raw I
*I *918:I I *D gf180mcu_fd_sc_mcu7t5v0__buf_1
*CAP
1 comp_raw 0.000784261
2 *918:I 0.000784261
3 *918:I latch_phase270_ack 0
4 *918:I votes_out_phase[3] 0.000379283
5 *918:I *883:RN 2.6126e-05
6 *918:I *950:I 3.00299e-05
*RES
1 comp_raw *918:I 14.738 
*END

*D_NET *5 0.00148445
*CONN
*P dir O
*I *951:Z O *D gf180mcu_fd_sc_mcu7t5v0__buf_2
*CAP
1 dir 0.000742223
2 *951:Z 0.000742223
*RES
1 *951:Z dir 9.554 
*END

*D_NET *6 0.00155096
*CONN
*P jitter_flag O
*I *952:Z O *D gf180mcu_fd_sc_mcu7t5v0__buf_2
*CAP
1 jitter_flag 0.000775481
2 *952:Z 0.000775481
*RES
1 *952:Z jitter_flag 14.282 
*END

*D_NET *7 0.00177894
*CONN
*P latch_phase270 I
*I *919:I I *D gf180mcu_fd_sc_mcu7t5v0__buf_1
*CAP
1 latch_phase270 0.000889469
2 *919:I 0.000889469
*RES
1 latch_phase270 *919:I 11.226 
*END

*D_NET *8 0.00182268
*CONN
*P latch_phase270_ack O
*I *953:Z O *D gf180mcu_fd_sc_mcu7t5v0__buf_2
*CAP
1 latch_phase270_ack 0.000911338
2 *953:Z 0.000911338
3 *918:I latch_phase270_ack 0
*RES
1 *953:Z latch_phase270_ack 11.378 
*END

*D_NET *9 0.0021163
*CONN
*P latch_phase90 I
*I *920:I I *D gf180mcu_fd_sc_mcu7t5v0__buf_1
*CAP
1 latch_phase90 0.00104332
2 *920:I 0.00104332
3 *920:I *757:A2 2.96621e-05
*RES
1 latch_phase90 *920:I 12.138 
*END

*D_NET *10 0.00167729
*CONN
*P latch_phase90_ack O
*I *954:Z O *D gf180mcu_fd_sc_mcu7t5v0__buf_2
*CAP
1 latch_phase90_ack 0.000838643
2 *954:Z 0.000838643
*RES
1 *954:Z latch_phase90_ack 10.086 
*END

*D_NET *11 0.00148445
*CONN
*P move_en O
*I *940:Z O *D gf180mcu_fd_sc_mcu7t5v0__buf_2
*CAP
1 move_en 0.000742223
2 *940:Z 0.000742223
*RES
1 *940:Z move_en 9.554 
*END

*D_NET *12 0.00151567
*CONN
*P phase_state[0] O
*I *941:Z O *D gf180mcu_fd_sc_mcu7t5v0__buf_2
*CAP
1 phase_state[0] 0.000578198
2 *941:Z 0.000578198
3 phase_state[0] *929:I 0.000134622
4 phase_state[0] *159:10 0.000224654
*RES
1 *941:Z phase_state[0] 13.218 
*END

*D_NET *13 0.00140244
*CONN
*P phase_state[1] O
*I *942:Z O *D gf180mcu_fd_sc_mcu7t5v0__buf_2
*CAP
1 phase_state[1] 0.000641166
2 *942:Z 0.000641166
3 phase_state[1] *842:A1 0.000120112
*RES
1 *942:Z phase_state[1] 13.218 
*END

*D_NET *14 0.00161434
*CONN
*P rst_n I
*I *921:I I *D gf180mcu_fd_sc_mcu7t5v0__buf_1
*CAP
1 rst_n 0.000807169
2 *921:I 0.000807169
*RES
1 rst_n *921:I 9.934 
*END

*D_NET *15 0.00170314
*CONN
*P soft_rst_n I
*I *922:I I *D gf180mcu_fd_sc_mcu7t5v0__buf_1
*CAP
1 soft_rst_n 0.000851568
2 *922:I 0.000851568
*RES
1 soft_rst_n *922:I 10.314 
*END

*D_NET *16 0.00103697
*CONN
*P votes_in_phase[0] O
*I *943:Z O *D gf180mcu_fd_sc_mcu7t5v0__buf_2
*CAP
1 votes_in_phase[0] 0.000440458
2 *943:Z 0.000440458
3 votes_in_phase[0] *161:10 6.47993e-06
4 votes_in_phase[0] *174:31 0.000149579
*RES
1 *943:Z votes_in_phase[0] 12.306 
*END

*D_NET *17 0.000681169
*CONN
*P votes_in_phase[1] O
*I *944:Z O *D gf180mcu_fd_sc_mcu7t5v0__buf_2
*CAP
1 votes_in_phase[1] 0.000340585
2 *944:Z 0.000340585
3 votes_in_phase[1] *162:10 0
*RES
1 *944:Z votes_in_phase[1] 11.47 
*END

*D_NET *18 0.00119896
*CONN
*P votes_in_phase[2] O
*I *945:Z O *D gf180mcu_fd_sc_mcu7t5v0__buf_2
*CAP
1 votes_in_phase[2] 0.000438707
2 *945:Z 0.000438707
3 votes_in_phase[2] *163:10 0.000321542
4 votes_in_phase[2] *174:55 0
*RES
1 *945:Z votes_in_phase[2] 12.306 
*END

*D_NET *19 0.00109147
*CONN
*P votes_in_phase[3] O
*I *946:Z O *D gf180mcu_fd_sc_mcu7t5v0__buf_2
*CAP
1 votes_in_phase[3] 0.000436002
2 *946:Z 0.000436002
3 votes_in_phase[3] *861:RN 1.45415e-05
4 votes_in_phase[3] *164:10 0.000204929
*RES
1 *946:Z votes_in_phase[3] 12.154 
*END

*D_NET *20 0.00092032
*CONN
*P votes_out_phase[0] O
*I *947:Z O *D gf180mcu_fd_sc_mcu7t5v0__buf_2
*CAP
1 votes_out_phase[0] 0.000430166
2 *947:Z 0.000430166
3 votes_out_phase[0] *862:RN 4.0272e-05
4 votes_out_phase[0] *165:8 1.97166e-05
*RES
1 *947:Z votes_out_phase[0] 12.002 
*END

*D_NET *21 0.00104267
*CONN
*P votes_out_phase[1] O
*I *948:Z O *D gf180mcu_fd_sc_mcu7t5v0__buf_2
*CAP
1 votes_out_phase[1] 0.000419852
2 *948:Z 0.000419852
3 votes_out_phase[1] *862:RN 0.000202968
*RES
1 *948:Z votes_out_phase[1] 12.002 
*END

*D_NET *22 0.000826724
*CONN
*P votes_out_phase[2] O
*I *949:Z O *D gf180mcu_fd_sc_mcu7t5v0__buf_2
*CAP
1 votes_out_phase[2] 0.000367027
2 *949:Z 0.000367027
3 votes_out_phase[2] *862:RN 9.26705e-05
*RES
1 *949:Z votes_out_phase[2] 11.698 
*END

*D_NET *23 0.00173148
*CONN
*P votes_out_phase[3] O
*I *950:Z O *D gf180mcu_fd_sc_mcu7t5v0__buf_2
*CAP
1 votes_out_phase[3] 0.000374324
2 *950:Z 0.000374324
3 votes_out_phase[3] *883:RN 0.000164871
4 votes_out_phase[3] *950:I 0.000438681
5 *918:I votes_out_phase[3] 0.000379283
*RES
1 *950:Z votes_out_phase[3] 12.762 
*END

*D_NET *24 0.002591
*CONN
*I *882:D I *D gf180mcu_fd_sc_mcu7t5v0__dffrnq_1
*I *761:Z O *D gf180mcu_fd_sc_mcu7t5v0__and2_1
*CAP
1 *882:D 0.000343726
2 *761:Z 0.000343726
3 *882:D *761:A1 0.000159181
4 *882:D *763:A1 0.000379274
5 *882:D *763:A2 5.9308e-05
6 *882:D *785:A2 2.14818e-05
7 *882:D *785:B 7.98048e-05
8 *882:D *883:CLK 0.000816353
9 *882:D *885:RN 4.52299e-05
10 *882:D *139:20 0.000307983
11 *882:D *140:6 6.5436e-06
12 *882:D *140:39 2.11524e-05
13 *882:D *140:50 7.24161e-06
*RES
1 *761:Z *882:D 22.56 
*END

*D_NET *25 0.000504112
*CONN
*I *883:D I *D gf180mcu_fd_sc_mcu7t5v0__dffrnq_1
*I *762:Z O *D gf180mcu_fd_sc_mcu7t5v0__and2_1
*CAP
1 *883:D 0.000234881
2 *762:Z 0.000234881
3 *883:D *753:A2 2.40935e-05
4 *883:D *881:D 0
5 *883:D *883:CLK 1.02578e-05
6 *883:D *885:RN 0
*RES
1 *762:Z *883:D 10.52 
*END

*D_NET *26 0.0021053
*CONN
*I *884:D I *D gf180mcu_fd_sc_mcu7t5v0__dffrnq_1
*I *763:Z O *D gf180mcu_fd_sc_mcu7t5v0__and2_1
*CAP
1 *884:D 0.000764396
2 *763:Z 0.000764396
3 *884:D *881:D 0
4 *884:D *885:RN 0.000494777
5 *884:D *915:I 8.17308e-05
*RES
1 *763:Z *884:D 13.864 
*END

*D_NET *27 0.000898032
*CONN
*I *885:D I *D gf180mcu_fd_sc_mcu7t5v0__dffrnq_1
*I *764:Z O *D gf180mcu_fd_sc_mcu7t5v0__and2_1
*CAP
1 *885:D 0.000277722
2 *764:Z 0.000277722
3 *885:D *815:A1 0.00012222
4 *885:D *874:CLK 7.24161e-06
5 *885:D *132:114 0.000116298
6 *885:D *132:123 2.90805e-05
7 *885:D *140:16 6.77492e-05
8 *885:D *211:26 0
*RES
1 *764:Z *885:D 11.508 
*END

*D_NET *28 0.00225594
*CONN
*I *881:D I *D gf180mcu_fd_sc_mcu7t5v0__dffrnq_1
*I *765:Z O *D gf180mcu_fd_sc_mcu7t5v0__and2_1
*CAP
1 *881:D 0.000269291
2 *765:Z 0.000269291
3 *881:D *753:A2 0.000293454
4 *881:D *762:A1 0.00083243
5 *881:D *885:RN 0.000493324
6 *881:D *195:10 9.81532e-05
7 *883:D *881:D 0
8 *884:D *881:D 0
*RES
1 *765:Z *881:D 21.952 
*END

*D_NET *29 0.00258529
*CONN
*I *880:D I *D gf180mcu_fd_sc_mcu7t5v0__dffrnq_1
*I *752:Z O *D gf180mcu_fd_sc_mcu7t5v0__and2_1
*CAP
1 *880:D 0.000480385
2 *752:Z 0.000480385
3 *880:D *880:CLK 0
4 *880:D *893:CLK 9.32131e-05
5 *880:D *914:I 0.000966289
6 *880:D *939:I 0.000107932
7 *880:D *176:38 5.05539e-05
8 *880:D *196:10 0.00010005
9 *3:22 *880:D 0.000306482
*RES
1 *752:Z *880:D 14.32 
*END

*D_NET *30 0.0008265
*CONN
*I *890:D I *D gf180mcu_fd_sc_mcu7t5v0__dffrnq_1
*I *753:Z O *D gf180mcu_fd_sc_mcu7t5v0__and2_1
*CAP
1 *890:D 0.000316281
2 *753:Z 0.000316281
3 *890:D *754:A1 0
4 *890:D *886:D 0
5 *890:D *890:CLK 0.000191702
6 *890:D *891:D 2.23598e-06
*RES
1 *753:Z *890:D 11.128 
*END

*D_NET *31 0.00092749
*CONN
*I *891:D I *D gf180mcu_fd_sc_mcu7t5v0__dffrnq_1
*I *754:Z O *D gf180mcu_fd_sc_mcu7t5v0__and2_1
*CAP
1 *891:D 0.000114318
2 *754:Z 0.000114318
3 *891:D *754:A2 5.13352e-06
4 *891:D *886:D 2.96621e-05
5 *891:D *890:CLK 0.000333388
6 *891:D *917:I 0.000112962
7 *891:D *138:43 0.000215472
8 *890:D *891:D 2.23598e-06
*RES
1 *754:Z *891:D 19.672 
*END

*D_NET *32 0.0003912
*CONN
*I *892:D I *D gf180mcu_fd_sc_mcu7t5v0__dffrnq_1
*I *755:Z O *D gf180mcu_fd_sc_mcu7t5v0__and2_1
*CAP
1 *892:D 0.000150969
2 *755:Z 0.000150969
3 *892:D *755:A2 0
4 *892:D *960:I 8.73421e-05
5 *892:D *138:32 1.91917e-06
*RES
1 *755:Z *892:D 10.064 
*END

*D_NET *33 0.000418728
*CONN
*I *893:D I *D gf180mcu_fd_sc_mcu7t5v0__dffrnq_1
*I *756:Z O *D gf180mcu_fd_sc_mcu7t5v0__and2_1
*CAP
1 *893:D 0.000139697
2 *756:Z 0.000139697
3 *893:D *756:A2 0.000139333
4 *893:D *140:16 0
*RES
1 *756:Z *893:D 10.064 
*END

*D_NET *34 0.00175857
*CONN
*I *886:D I *D gf180mcu_fd_sc_mcu7t5v0__dffrnq_1
*I *757:Z O *D gf180mcu_fd_sc_mcu7t5v0__and2_1
*CAP
1 *886:D 0.000680899
2 *757:Z 0.000680899
3 *886:D *757:A1 1.91917e-06
4 *886:D *886:CLK 2.57058e-06
5 *886:D *911:I 0.000362617
6 *886:D *176:14 0
7 *890:D *886:D 0
8 *891:D *886:D 2.96621e-05
*RES
1 *757:Z *886:D 13.256 
*END

*D_NET *35 0.000973249
*CONN
*I *887:D I *D gf180mcu_fd_sc_mcu7t5v0__dffrnq_1
*I *758:Z O *D gf180mcu_fd_sc_mcu7t5v0__and2_1
*CAP
1 *887:D 0.000377247
2 *758:Z 0.000377247
3 *887:D *886:CLK 6.13012e-05
4 *887:D *887:CLK 9.026e-05
5 *887:D *137:18 6.71936e-05
6 *3:22 *887:D 0
*RES
1 *758:Z *887:D 20.736 
*END

*D_NET *36 0.00145724
*CONN
*I *888:D I *D gf180mcu_fd_sc_mcu7t5v0__dffrnq_1
*I *759:Z O *D gf180mcu_fd_sc_mcu7t5v0__and2_1
*CAP
1 *888:D 0.000469676
2 *759:Z 0.000469676
3 *888:D *759:A2 5.3266e-05
4 *888:D *137:10 0.000464623
*RES
1 *759:Z *888:D 12.724 
*END

*D_NET *37 0.00244416
*CONN
*I *889:D I *D gf180mcu_fd_sc_mcu7t5v0__dffrnq_1
*I *760:Z O *D gf180mcu_fd_sc_mcu7t5v0__and2_1
*CAP
1 *889:D 0.000795645
2 *760:Z 0.000795645
3 *889:D *752:A1 0.000551947
4 *889:D *760:A1 0
5 *889:D *873:CLK 7.24161e-06
6 *889:D *914:I 0.000157987
7 *889:D *137:53 0.000135698
8 *889:D *197:10 0
*RES
1 *760:Z *889:D 23.852 
*END

*D_NET *38 0.00137197
*CONN
*I *864:D I *D gf180mcu_fd_sc_mcu7t5v0__dffrnq_1
*I *782:ZN O *D gf180mcu_fd_sc_mcu7t5v0__oai21_1
*CAP
1 *864:D 0.000527277
2 *782:ZN 0.000527277
3 *864:D *761:A1 4.75539e-05
4 *864:D *782:A1 0.000194084
5 *864:D *139:6 7.57767e-05
6 *864:D *152:14 0
*RES
1 *782:ZN *864:D 21.496 
*END

*D_NET *39 0.000628844
*CONN
*I *865:D I *D gf180mcu_fd_sc_mcu7t5v0__dffrnq_1
*I *785:ZN O *D gf180mcu_fd_sc_mcu7t5v0__oai21_1
*CAP
1 *865:D 0.000168889
2 *785:ZN 0.000168889
3 *865:D *785:A1 0
4 *865:D *785:A2 0.000248576
5 *865:D *883:CLK 1.5015e-05
6 *865:D *139:20 2.74753e-05
*RES
1 *785:ZN *865:D 10.368 
*END

*D_NET *40 0.00129112
*CONN
*I *866:D I *D gf180mcu_fd_sc_mcu7t5v0__dffrnq_1
*I *788:ZN O *D gf180mcu_fd_sc_mcu7t5v0__oai21_1
*CAP
1 *866:D 0.000184805
2 *788:ZN 0.000184805
3 *866:D *788:A1 0.00017887
4 *866:D *788:B 4.58601e-06
5 *866:D *866:CLK 8.22324e-05
6 *866:D *182:30 3.27897e-05
7 *866:D *191:12 0.00021548
8 *866:D *191:22 0.000407549
*RES
1 *788:ZN *866:D 20.28 
*END

*D_NET *41 0.000915089
*CONN
*I *867:D I *D gf180mcu_fd_sc_mcu7t5v0__dffrnq_1
*I *791:ZN O *D gf180mcu_fd_sc_mcu7t5v0__nor2_1
*CAP
1 *867:D 0.000257949
2 *791:ZN 0.000257949
3 *867:D *866:CLK 0
4 *867:D *867:CLK 0.000399191
*RES
1 *791:ZN *867:D 19.9 
*END

*D_NET *42 0.00141473
*CONN
*I *868:D I *D gf180mcu_fd_sc_mcu7t5v0__dffrnq_1
*I *796:ZN O *D gf180mcu_fd_sc_mcu7t5v0__nor2_1
*CAP
1 *868:D 0.000501224
2 *796:ZN 0.000501224
3 *868:D *745:I 0
4 *868:D *771:A1 9.74134e-05
5 *868:D *868:CLK 0.000214838
6 *868:D *904:I 5.3266e-05
7 *868:D *956:I 2.22657e-05
8 *868:D *69:12 0
9 *868:D *125:6 2.44988e-05
*RES
1 *796:ZN *868:D 12.572 
*END

*D_NET *43 0.000764691
*CONN
*I *869:D I *D gf180mcu_fd_sc_mcu7t5v0__dffrnq_1
*I *801:ZN O *D gf180mcu_fd_sc_mcu7t5v0__nor2_1
*CAP
1 *869:D 0.000105754
2 *801:ZN 0.000105754
3 *869:D *793:A4 5.94709e-06
4 *869:D *796:A1 2.49689e-05
5 *869:D *844:A2 0.000449002
6 *869:D *175:14 7.32666e-05
*RES
1 *801:ZN *869:D 19.292 
*END

*D_NET *44 0.00227794
*CONN
*I *870:D I *D gf180mcu_fd_sc_mcu7t5v0__dffrnq_1
*I *805:ZN O *D gf180mcu_fd_sc_mcu7t5v0__nor2_1
*CAP
1 *870:D 0.000369396
2 *805:ZN 0.000369396
3 *870:D *775:A2 0.000416178
4 *870:D *798:A1 1.52691e-05
5 *870:D *802:A2 3.36949e-05
6 *870:D *805:A2 0.000216312
7 *870:D *807:A1 2.6126e-05
8 *870:D *829:B 0
9 *870:D *92:6 0
10 *870:D *113:26 0.000124318
11 *870:D *126:20 0.000538805
12 *870:D *152:22 0.000168447
*RES
1 *805:ZN *870:D 22.18 
*END

*D_NET *45 0.00502216
*CONN
*I *871:D I *D gf180mcu_fd_sc_mcu7t5v0__dffrnq_1
*I *807:ZN O *D gf180mcu_fd_sc_mcu7t5v0__nor2_1
*CAP
1 *871:D 0.000678594
2 *807:ZN 0.000678594
3 *871:D *777:A2 5.37472e-05
4 *871:D *802:A1 0.000389591
5 *871:D *805:A2 0.00106824
6 *871:D *807:A2 9.33869e-05
7 *871:D *845:A1 3.00299e-05
8 *871:D *845:A2 9.26705e-05
9 *871:D *846:B 0.000149579
10 *871:D *847:A1 8.04139e-05
11 *871:D *848:B 0
12 *871:D *850:A1 8.30464e-05
13 *871:D *851:A2 7.24161e-06
14 *871:D *98:12 0
15 *871:D *126:10 5.48978e-05
16 *871:D *143:10 0.0010393
17 *871:D *152:22 0
18 *871:D *171:27 0.000307302
19 *871:D *171:34 4.24903e-05
20 *871:D *174:55 0.000173033
*RES
1 *807:ZN *871:D 27.5 
*END

*D_NET *46 0.000479099
*CONN
*I *872:D I *D gf180mcu_fd_sc_mcu7t5v0__dffrnq_1
*I *810:ZN O *D gf180mcu_fd_sc_mcu7t5v0__nor2_1
*CAP
1 *872:D 9.43177e-05
2 *810:ZN 9.43177e-05
3 *872:D *914:I 0.000140885
4 *872:D *216:14 0.000149579
*RES
1 *810:ZN *872:D 10.216 
*END

*D_NET *47 0.00126867
*CONN
*I *873:D I *D gf180mcu_fd_sc_mcu7t5v0__dffrnq_1
*I *813:ZN O *D gf180mcu_fd_sc_mcu7t5v0__nor2_1
*CAP
1 *873:D 0.000301259
2 *813:ZN 0.000301259
3 *873:D *810:A1 0.000158878
4 *873:D *810:A2 0
5 *873:D *914:I 0.000141897
6 *873:D *175:29 4.07337e-05
7 *873:D *216:14 0.00032464
*RES
1 *813:ZN *873:D 20.584 
*END

*D_NET *48 0.000915147
*CONN
*I *874:D I *D gf180mcu_fd_sc_mcu7t5v0__dffrnq_1
*I *814:ZN O *D gf180mcu_fd_sc_mcu7t5v0__nor2_1
*CAP
1 *874:D 0.000199617
2 *814:ZN 0.000199617
3 *874:D *761:A1 3.89082e-05
4 *874:D *815:A1 0.000308746
5 *874:D *875:D 8.76575e-05
6 *874:D *211:26 8.06016e-05
*RES
1 *814:ZN *874:D 19.976 
*END

*D_NET *49 0.00237737
*CONN
*I *875:D I *D gf180mcu_fd_sc_mcu7t5v0__dffrnq_1
*I *815:ZN O *D gf180mcu_fd_sc_mcu7t5v0__nor2_1
*CAP
1 *875:D 0.000838468
2 *815:ZN 0.000838468
3 *875:D *761:A1 0
4 *875:D *814:A1 0
5 *875:D *815:A1 6.85645e-06
6 *875:D *875:CLK 0
7 *875:D *901:I 1.29762e-05
8 *875:D *132:33 0
9 *875:D *132:37 0
10 *875:D *132:48 0
11 *875:D *132:160 0.00026029
12 *875:D *175:63 3.87534e-05
13 *875:D *211:26 0.000293899
14 *874:D *875:D 8.76575e-05
*RES
1 *815:ZN *875:D 24.156 
*END

*D_NET *50 0.00200534
*CONN
*I *876:D I *D gf180mcu_fd_sc_mcu7t5v0__dffrnq_1
*I *818:ZN O *D gf180mcu_fd_sc_mcu7t5v0__oai21_1
*CAP
1 *876:D 0.000385047
2 *818:ZN 0.000385047
3 *876:D *816:A1 8.28875e-05
4 *876:D *840:A2 1.53689e-05
5 *876:D *876:CLK 5.76636e-05
6 *876:D *66:53 0.000420712
7 *876:D *104:14 0.000301608
8 *876:D *133:31 0.000357004
*RES
1 *818:ZN *876:D 13.408 
*END

*D_NET *51 0.000548235
*CONN
*I *877:D I *D gf180mcu_fd_sc_mcu7t5v0__dffrnq_1
*I *820:ZN O *D gf180mcu_fd_sc_mcu7t5v0__oai22_1
*CAP
1 *877:D 0.000100133
2 *820:ZN 0.000100133
3 *877:D *820:A1 0.00032464
4 *877:D *820:A2 0
5 *877:D *877:CLK 2.333e-05
*RES
1 *820:ZN *877:D 10.064 
*END

*D_NET *52 0.00340015
*CONN
*I *878:D I *D gf180mcu_fd_sc_mcu7t5v0__dffrnq_1
*I *826:ZN O *D gf180mcu_fd_sc_mcu7t5v0__aoi22_1
*CAP
1 *878:D 0.000446187
2 *826:ZN 0.000446187
3 *878:D *749:I 0.000148773
4 *878:D *820:A2 0.000808083
5 *878:D *826:B2 0.00117387
6 *878:D *878:CLK 7.24161e-06
7 *878:D *879:D 4.71484e-05
8 *878:D *879:CLK 0
9 *878:D *85:22 0.00032266
*RES
1 *826:ZN *878:D 23.928 
*END

*D_NET *53 0.00129065
*CONN
*I *879:D I *D gf180mcu_fd_sc_mcu7t5v0__dffrnq_1
*I *828:ZN O *D gf180mcu_fd_sc_mcu7t5v0__oai31_1
*CAP
1 *879:D 0.000435038
2 *828:ZN 0.000435038
3 *879:D *749:I 3.43375e-05
4 *879:D *820:A2 0
5 *879:D *827:A2 0.000271336
6 *879:D *879:CLK 6.77492e-05
7 *878:D *879:D 4.71484e-05
*RES
1 *828:ZN *879:D 21.648 
*END

*D_NET *54 0.00114795
*CONN
*I *853:D I *D gf180mcu_fd_sc_mcu7t5v0__dffrnq_1
*I *833:ZN O *D gf180mcu_fd_sc_mcu7t5v0__oai32_1
*CAP
1 *853:D 0.000351497
2 *833:ZN 0.000351497
3 *853:D *833:A2 8.08531e-05
4 *853:D *838:A1 0
5 *853:D *838:A3 7.96259e-05
6 *853:D *842:A2 4.02478e-05
7 *853:D *842:B 5.71374e-05
8 *853:D *856:D 0.000132099
9 *853:D *858:D 5.49899e-05
*RES
1 *833:ZN *853:D 11.736 
*END

*D_NET *55 0.000578108
*CONN
*I *854:D I *D gf180mcu_fd_sc_mcu7t5v0__dffrnq_1
*I *835:ZN O *D gf180mcu_fd_sc_mcu7t5v0__oai21_1
*CAP
1 *854:D 0.000280057
2 *835:ZN 0.000280057
3 *854:D *835:A2 1.79941e-05
4 *854:D *857:RN 0
5 *854:D *69:12 0
*RES
1 *835:ZN *854:D 10.672 
*END

*D_NET *56 0.00213593
*CONN
*I *855:D I *D gf180mcu_fd_sc_mcu7t5v0__dffrnq_1
*I *837:ZN O *D gf180mcu_fd_sc_mcu7t5v0__nor3_1
*CAP
1 *855:D 0.000304541
2 *837:ZN 0.000304541
3 *855:D *836:A2 0.000431535
4 *855:D *837:A1 0.000929153
5 *855:D *856:D 2.74488e-05
6 *855:D *858:D 0.00010905
7 *855:D *172:14 2.96621e-05
*RES
1 *837:ZN *855:D 12.496 
*END

*D_NET *57 0.00247365
*CONN
*I *856:D I *D gf180mcu_fd_sc_mcu7t5v0__dffrnq_1
*I *839:ZN O *D gf180mcu_fd_sc_mcu7t5v0__oai31_1
*CAP
1 *856:D 0.000306945
2 *839:ZN 0.000306945
3 *856:D *833:A1 0.000184871
4 *856:D *833:A2 1.08266e-05
5 *856:D *833:B1 4.01734e-05
6 *856:D *835:A1 9.17202e-06
7 *856:D *836:A2 3.73535e-05
8 *856:D *838:A1 4.78487e-05
9 *856:D *838:A3 4.2318e-06
10 *856:D *842:A2 2.9378e-06
11 *856:D *842:B 2.47642e-05
12 *856:D *853:CLK 2.6126e-05
13 *856:D *858:D 0.000490424
14 *856:D *66:96 6.78331e-06
15 *856:D *70:20 9.24351e-05
16 *856:D *125:27 0.000237977
17 *856:D *135:22 1.23589e-05
18 *856:D *172:14 0.000471934
19 *853:D *856:D 0.000132099
20 *855:D *856:D 2.74488e-05
*RES
1 *839:ZN *856:D 21.876 
*END

*D_NET *58 0.000636273
*CONN
*I *857:D I *D gf180mcu_fd_sc_mcu7t5v0__dffrnq_1
*I *840:ZN O *D gf180mcu_fd_sc_mcu7t5v0__oai22_1
*CAP
1 *857:D 0.000188968
2 *840:ZN 0.000188968
3 *857:D *840:A1 8.94407e-05
4 *857:D *840:A2 2.55651e-06
5 *857:D *876:CLK 5.6917e-05
6 *857:D *133:31 0.000109422
7 *857:D *153:29 0
*RES
1 *840:ZN *857:D 10.444 
*END

*D_NET *59 0.00321431
*CONN
*I *858:D I *D gf180mcu_fd_sc_mcu7t5v0__dffrnq_1
*I *842:ZN O *D gf180mcu_fd_sc_mcu7t5v0__oai21_1
*CAP
1 *858:D 0.000551208
2 *842:ZN 0.000551208
3 *858:D *836:A2 0.000106398
4 *858:D *838:A1 0.000716503
5 *858:D *842:A2 0.000141629
6 *858:D *842:B 0.000371936
7 *858:D *172:14 0.000120961
8 *853:D *858:D 5.49899e-05
9 *855:D *858:D 0.00010905
10 *856:D *858:D 0.000490424
*RES
1 *842:ZN *858:D 24.156 
*END

*D_NET *60 0.0006629
*CONN
*I *859:D I *D gf180mcu_fd_sc_mcu7t5v0__dffrnq_1
*I *844:ZN O *D gf180mcu_fd_sc_mcu7t5v0__oai21_1
*CAP
1 *859:D 0.000302475
2 *844:ZN 0.000302475
3 *859:D *851:A2 1.09994e-05
4 *859:D *98:12 4.26315e-06
5 *859:D *136:8 4.26884e-05
*RES
1 *844:ZN *859:D 10.748 
*END

*D_NET *61 0.00137656
*CONN
*I *860:D I *D gf180mcu_fd_sc_mcu7t5v0__dffrnq_1
*I *846:ZN O *D gf180mcu_fd_sc_mcu7t5v0__oai21_1
*CAP
1 *860:D 0.000469302
2 *846:ZN 0.000469302
3 *860:D *846:A2 0
4 *860:D *846:B 0
5 *860:D *871:CLK 0
6 *860:D *136:37 0
7 *860:D *171:12 5.86759e-05
8 *860:D *174:44 0.000379283
*RES
1 *846:ZN *860:D 21.648 
*END

*D_NET *62 0.000575885
*CONN
*I *861:D I *D gf180mcu_fd_sc_mcu7t5v0__dffrnq_1
*I *848:ZN O *D gf180mcu_fd_sc_mcu7t5v0__oai21_1
*CAP
1 *861:D 5.3616e-05
2 *848:ZN 5.3616e-05
3 *861:D *98:12 0.000386421
4 *861:D *143:10 8.22324e-05
*RES
1 *848:ZN *861:D 9.988 
*END

*D_NET *63 0.000612518
*CONN
*I *862:D I *D gf180mcu_fd_sc_mcu7t5v0__dffrnq_1
*I *850:ZN O *D gf180mcu_fd_sc_mcu7t5v0__oai21_1
*CAP
1 *862:D 0.000251204
2 *850:ZN 0.000251204
3 *862:D *807:A2 0
4 *862:D *171:42 0
5 *862:D *174:86 0.000110111
*RES
1 *850:ZN *862:D 19.672 
*END

*D_NET *64 0.000604958
*CONN
*I *863:D I *D gf180mcu_fd_sc_mcu7t5v0__dffrnq_1
*I *852:ZN O *D gf180mcu_fd_sc_mcu7t5v0__oai21_1
*CAP
1 *863:D 0.000221736
2 *852:ZN 0.000221736
3 *863:D *782:B 2.72804e-05
4 *863:D *171:42 0
5 *863:D *174:90 0.000134206
*RES
1 *852:ZN *863:D 19.368 
*END

*D_NET *65 0.0062381
*CONN
*I *773:A4 I *D gf180mcu_fd_sc_mcu7t5v0__nand4_1
*I *792:A3 I *D gf180mcu_fd_sc_mcu7t5v0__nand3_1
*I *793:A4 I *D gf180mcu_fd_sc_mcu7t5v0__nand4_1
*I *817:A1 I *D gf180mcu_fd_sc_mcu7t5v0__nand2_1
*I *825:A4 I *D gf180mcu_fd_sc_mcu7t5v0__nand4_1
*I *766:Z O *D gf180mcu_fd_sc_mcu7t5v0__and2_1
*CAP
1 *773:A4 0.000265394
2 *792:A3 0
3 *793:A4 0.000115201
4 *817:A1 0
5 *825:A4 0.000185029
6 *766:Z 0.000134078
7 *65:40 0.00018523
8 *65:20 0.000520665
9 *65:14 0.000948641
10 *65:8 0.000942448
11 *773:A4 *766:A1 0
12 *773:A4 *896:I 1.63764e-05
13 *773:A4 *132:17 1.4922e-05
14 *773:A4 *134:12 0.000376901
15 *773:A4 *187:16 9.75999e-05
16 *773:A4 *191:12 3.3525e-05
17 *793:A4 *792:A1 0.000213194
18 *793:A4 *794:A2 0.00014967
19 *793:A4 *797:A1 0.00015495
20 *793:A4 *172:22 1.34641e-06
21 *793:A4 *175:14 0
22 *825:A4 *823:A1 0.000107868
23 *825:A4 *823:A2 0.000181456
24 *825:A4 *878:RN 5.87561e-06
25 *825:A4 *85:55 1.58383e-05
26 *825:A4 *156:10 3.83835e-06
27 *825:A4 *181:8 0.000538438
28 *65:8 *191:12 0.000205933
29 *65:14 *766:A1 1.0115e-05
30 *65:14 *787:A2 6.03838e-05
31 *65:14 *788:A2 0
32 *65:14 *792:A2 0
33 *65:14 *797:A1 8.45159e-05
34 *65:14 *840:A2 0
35 *65:14 *866:RN 8.36469e-05
36 *65:14 *187:16 1.53689e-05
37 *65:14 *212:43 0
38 *65:20 *787:A2 5.07376e-05
39 *65:20 *823:A1 0
40 *65:20 *840:A2 4.13816e-05
41 *65:20 *66:32 0
42 *65:20 *66:53 0.000317503
43 *65:20 *172:22 0
44 *65:40 *787:A2 5.87975e-05
45 *65:40 *797:A1 9.52854e-05
46 *65:40 *172:22 0
47 *869:D *793:A4 5.94709e-06
*RES
1 *766:Z *65:8 10.444 
2 *65:8 *65:14 12.572 
3 *65:14 *65:20 7.236 
4 *65:20 *825:A4 15.628 
5 *65:20 *817:A1 4.5 
6 *65:14 *65:40 0.836 
7 *65:40 *793:A4 10.52 
8 *65:40 *792:A3 9 
9 *65:8 *773:A4 11.28 
*END

*D_NET *66 0.0213441
*CONN
*I *798:A3 I *D gf180mcu_fd_sc_mcu7t5v0__nor4_4
*I *775:A3 I *D gf180mcu_fd_sc_mcu7t5v0__nor4_4
*I *772:A3 I *D gf180mcu_fd_sc_mcu7t5v0__nor3_2
*I *839:A3 I *D gf180mcu_fd_sc_mcu7t5v0__oai31_1
*I *838:A3 I *D gf180mcu_fd_sc_mcu7t5v0__nand3_1
*I *769:A2 I *D gf180mcu_fd_sc_mcu7t5v0__or3_1
*I *840:A1 I *D gf180mcu_fd_sc_mcu7t5v0__oai22_1
*I *816:A3 I *D gf180mcu_fd_sc_mcu7t5v0__nand3_1
*I *789:A2 I *D gf180mcu_fd_sc_mcu7t5v0__nand2_1
*I *767:ZN O *D gf180mcu_fd_sc_mcu7t5v0__nand2_2
*CAP
1 *798:A3 0.000682562
2 *775:A3 0
3 *772:A3 0.000682562
4 *839:A3 0
5 *838:A3 0.000559157
6 *769:A2 2.46942e-05
7 *840:A1 7.49605e-05
8 *816:A3 0.000279475
9 *789:A2 0.000205078
10 *767:ZN 0.000135866
11 *66:96 0.00137542
12 *66:81 0.00106067
13 *66:68 0.000514319
14 *66:53 0.000964874
15 *66:32 0.00156889
16 *66:14 0.00114625
17 *66:12 0.000384046
18 *769:A2 *153:29 2.49387e-05
19 *769:A2 *172:22 7.3227e-05
20 *789:A2 *789:A1 1.5015e-05
21 *789:A2 *85:10 4.50449e-05
22 *789:A2 *85:55 0
23 *798:A3 *804:A1 0.000281221
24 *798:A3 *804:A2 0.000154451
25 *798:A3 *829:B 2.05156e-05
26 *798:A3 *92:6 0.000326266
27 *798:A3 *113:26 0.000141627
28 *798:A3 *152:37 0.000228255
29 *798:A3 *189:10 0
30 *798:A3 *212:19 6.15433e-05
31 *816:A3 *748:I 0.000256073
32 *816:A3 *153:29 1.10617e-05
33 *838:A3 *779:A1 4.21224e-05
34 *838:A3 *833:A2 0
35 *838:A3 *833:B1 7.38371e-06
36 *838:A3 *839:B 8.26254e-06
37 *838:A3 *842:A2 0.000272297
38 *838:A3 *951:I 8.55242e-05
39 *838:A3 *956:I 2.6126e-05
40 *838:A3 *78:6 0.000726709
41 *838:A3 *125:27 3.83835e-06
42 *838:A3 *204:12 0.000248576
43 *840:A1 *840:B1 1.5015e-05
44 *840:A1 *133:31 2.01099e-05
45 *840:A1 *153:29 0
46 *66:12 *774:A2 1.10798e-05
47 *66:12 *775:A4 8.55242e-05
48 *66:12 *808:A2 2.96977e-05
49 *66:12 *145:32 4.41345e-05
50 *66:12 *211:26 0.000174868
51 *66:14 *773:A1 1.49066e-06
52 *66:14 *775:A2 1.65795e-06
53 *66:14 *808:A2 0.000213945
54 *66:14 *126:20 0.000162321
55 *66:14 *126:28 8.81341e-06
56 *66:14 *187:16 0
57 *66:14 *211:26 4.58601e-06
58 *66:32 *773:A1 1.91917e-06
59 *66:32 *787:A1 0.000396904
60 *66:32 *787:A2 7.12947e-05
61 *66:32 *797:A2 0.000511331
62 *66:32 *798:A4 0.000323039
63 *66:32 *866:RN 2.07594e-05
64 *66:32 *113:26 0.000901106
65 *66:32 *126:28 0.000304448
66 *66:32 *187:16 4.718e-05
67 *66:32 *212:43 8.96875e-05
68 *66:53 *816:A1 0.000834999
69 *66:53 *824:B 0.000187262
70 *66:53 *840:A2 4.09927e-05
71 *66:53 *928:I 4.58601e-06
72 *66:53 *85:55 0.000649322
73 *66:53 *104:8 0.000234819
74 *66:53 *104:14 9.17202e-06
75 *66:53 *181:8 0.000664935
76 *66:53 *191:22 0
77 *66:68 *153:29 2.1777e-05
78 *66:81 *840:B2 0.000421491
79 *66:81 *153:29 3.08801e-05
80 *66:96 *831:A2 0.000130907
81 *66:96 *840:B2 0.000473493
82 *66:96 *910:I 0.000177324
83 *66:96 *956:I 0.000168167
84 *66:96 *70:20 0
85 *66:96 *112:29 0.000186602
86 *66:96 *113:26 2.36218e-05
87 *66:96 *125:21 5.59809e-06
88 *853:D *838:A3 7.96259e-05
89 *856:D *838:A3 4.2318e-06
90 *856:D *66:96 6.78331e-06
91 *857:D *840:A1 8.94407e-05
92 *876:D *66:53 0.000420712
93 *65:20 *66:32 0
94 *65:20 *66:53 0.000317503
*RES
1 *767:ZN *66:12 14.868 
2 *66:12 *66:14 2.356 
3 *66:14 *66:32 13.468 
4 *66:32 *789:A2 10.064 
5 *66:32 *66:53 16.22 
6 *66:53 *816:A3 10.748 
7 *66:53 *66:68 1.14 
8 *66:68 *840:A1 9.608 
9 *66:68 *66:81 1.748 
10 *66:81 *769:A2 9.228 
11 *66:81 *66:96 10.732 
12 *66:96 *838:A3 9.668 
13 *66:96 *839:A3 4.5 
14 *66:14 *772:A3 4.5 
15 *66:12 *775:A3 4.5 
16 *772:A3 *798:A3 24.08 
*END

*D_NET *67 0.00194803
*CONN
*I *769:A3 I *D gf180mcu_fd_sc_mcu7t5v0__or3_1
*I *768:ZN O *D gf180mcu_fd_sc_mcu7t5v0__nand3_1
*CAP
1 *769:A3 0.00024112
2 *768:ZN 0.00024112
3 *769:A3 *780:A2 6.05076e-05
4 *769:A3 *824:A1 0
5 *769:A3 *832:B 3.62081e-05
6 *769:A3 *869:CLK 1.06223e-05
7 *769:A3 *113:26 0
8 *769:A3 *153:40 4.26843e-05
9 *769:A3 *153:42 4.02664e-05
10 *769:A3 *172:22 0.000716481
11 *769:A3 *181:32 0.000559017
*RES
1 *768:ZN *769:A3 21.344 
*END

*D_NET *68 0.00235463
*CONN
*I *770:I I *D gf180mcu_fd_sc_mcu7t5v0__clkinv_1
*I *780:A2 I *D gf180mcu_fd_sc_mcu7t5v0__nand2_2
*I *832:B I *D gf180mcu_fd_sc_mcu7t5v0__aoi21_1
*I *769:Z O *D gf180mcu_fd_sc_mcu7t5v0__or3_1
*CAP
1 *770:I 9.84103e-05
2 *780:A2 0.00040828
3 *832:B 0.000295854
4 *769:Z 0
5 *68:4 0.000605724
6 *780:A2 *780:A1 6.17482e-06
7 *780:A2 *831:A2 3.86561e-05
8 *780:A2 *869:CLK 0.000151957
9 *780:A2 *112:18 2.67896e-05
10 *780:A2 *113:26 0.000102455
11 *780:A2 *180:10 0.000156492
12 *780:A2 *181:32 2.4706e-05
13 *832:B *751:I 0.000169808
14 *832:B *832:A1 1.44832e-05
15 *832:B *834:A1 1.02578e-05
16 *832:B *112:18 2.13579e-05
17 *832:B *113:26 3.07734e-05
18 *832:B *172:22 9.57386e-05
19 *769:A3 *780:A2 6.05076e-05
20 *769:A3 *832:B 3.62081e-05
*RES
1 *769:Z *68:4 4.5 
2 *68:4 *832:B 7.084 
3 *68:4 *780:A2 16.236 
4 *780:A2 *770:I 9.684 
*END

*D_NET *69 0.00584827
*CONN
*I *771:A2 I *D gf180mcu_fd_sc_mcu7t5v0__nand2_2
*I *779:A2 I *D gf180mcu_fd_sc_mcu7t5v0__nor2_1
*I *836:A2 I *D gf180mcu_fd_sc_mcu7t5v0__nor2_1
*I *770:ZN O *D gf180mcu_fd_sc_mcu7t5v0__clkinv_1
*CAP
1 *771:A2 9.70721e-05
2 *779:A2 0
3 *836:A2 0.000352013
4 *770:ZN 9.00007e-05
5 *69:12 0.0009217
6 *69:8 0.00075676
7 *771:A2 *956:I 1.43468e-05
8 *771:A2 *180:10 4.07337e-05
9 *771:A2 *180:21 0.000151288
10 *836:A2 *837:A1 2.23477e-05
11 *836:A2 *837:A3 2.98535e-05
12 *836:A2 *838:A1 7.43814e-05
13 *836:A2 *842:A1 5.70962e-05
14 *836:A2 *842:B 0.000546508
15 *836:A2 *853:CLK 0.000303419
16 *836:A2 *854:CLK 0.000850467
17 *836:A2 *172:14 8.27107e-05
18 *69:8 *180:10 0.000168413
19 *69:12 *779:A1 0.000253746
20 *69:12 *831:A2 0
21 *69:12 *910:I 2.0118e-05
22 *69:12 *125:6 0.000302227
23 *69:12 *170:10 0.000137785
24 *854:D *69:12 0
25 *855:D *836:A2 0.000431535
26 *856:D *836:A2 3.73535e-05
27 *858:D *836:A2 0.000106398
28 *868:D *69:12 0
*RES
1 *770:ZN *69:8 9.836 
2 *69:8 *69:12 8.68 
3 *69:12 *836:A2 18.896 
4 *69:12 *779:A2 4.5 
5 *69:8 *771:A2 9.988 
*END

*D_NET *70 0.00692696
*CONN
*I *924:I I *D gf180mcu_fd_sc_mcu7t5v0__buf_2
*I *833:B2 I *D gf180mcu_fd_sc_mcu7t5v0__oai32_1
*I *835:A1 I *D gf180mcu_fd_sc_mcu7t5v0__oai21_1
*I *771:ZN O *D gf180mcu_fd_sc_mcu7t5v0__nand2_2
*CAP
1 *924:I 0.000523308
2 *833:B2 0
3 *835:A1 7.33349e-05
4 *771:ZN 0.000109917
5 *70:20 0.000344955
6 *70:8 0.000904845
7 *835:A1 *751:I 1.5961e-05
8 *835:A1 *833:B1 7.83779e-05
9 *835:A1 *842:A2 0.00013063
10 *835:A1 *942:I 0.00048286
11 *835:A1 *115:8 0.00136527
12 *835:A1 *170:10 0.000362602
13 *924:I *838:A1 3.75951e-05
14 *924:I *842:B 0.000193933
15 *924:I *956:I 4.75335e-05
16 *924:I *170:25 0.000193933
17 *70:8 *838:A1 1.90639e-05
18 *70:8 *956:I 6.8509e-05
19 *70:8 *180:21 4.1938e-05
20 *70:20 *833:B1 0.000127484
21 *70:20 *837:A1 0.00014026
22 *70:20 *842:A2 0.000185267
23 *70:20 *868:CLK 0.000307974
24 *70:20 *942:I 4.7151e-05
25 *70:20 *956:I 0
26 *70:20 *125:21 9.13326e-06
27 *70:20 *125:27 0.000129252
28 *70:20 *135:20 0.00068558
29 *70:20 *135:22 0.000198685
30 *856:D *835:A1 9.17202e-06
31 *856:D *70:20 9.24351e-05
32 *66:96 *70:20 0
*RES
1 *771:ZN *70:8 9.836 
2 *70:8 *70:20 17.224 
3 *70:20 *835:A1 17.3 
4 *70:20 *833:B2 4.5 
5 *70:8 *924:I 12.952 
*END

*D_NET *71 0.00333393
*CONN
*I *809:A2 I *D gf180mcu_fd_sc_mcu7t5v0__xnor2_1
*I *808:A2 I *D gf180mcu_fd_sc_mcu7t5v0__xor2_1
*I *772:ZN O *D gf180mcu_fd_sc_mcu7t5v0__nor3_2
*CAP
1 *809:A2 6.001e-05
2 *808:A2 0.000263491
3 *772:ZN 0.000203481
4 *808:A2 *775:A4 4.89699e-05
5 *808:A2 *809:A1 4.58601e-06
6 *808:A2 *72:8 0.00113565
7 *808:A2 *175:63 0
8 *809:A2 *775:A4 0.000255714
9 *809:A2 *809:A1 0.000241884
10 *809:A2 *175:63 2.05156e-05
11 *809:A2 *211:26 0.000855992
12 *66:12 *808:A2 2.96977e-05
13 *66:14 *808:A2 0.000213945
*RES
1 *772:ZN *808:A2 12.192 
2 *808:A2 *809:A2 11.204 
*END

*D_NET *72 0.003825
*CONN
*I *812:A2 I *D gf180mcu_fd_sc_mcu7t5v0__xor2_1
*I *811:A2 I *D gf180mcu_fd_sc_mcu7t5v0__xnor2_1
*I *773:ZN O *D gf180mcu_fd_sc_mcu7t5v0__nand4_1
*CAP
1 *812:A2 0.000169999
2 *811:A2 0
3 *773:ZN 0.000207109
4 *72:8 0.000377108
5 *812:A2 *774:A2 0
6 *812:A2 *809:A1 1.76797e-05
7 *812:A2 *812:A1 0.000146053
8 *812:A2 *872:RN 0
9 *812:A2 *146:8 6.68265e-05
10 *812:A2 *175:63 0.000458611
11 *72:8 *773:A2 0.00101666
12 *72:8 *774:A2 2.49912e-05
13 *72:8 *809:A1 5.70051e-05
14 *72:8 *145:17 0.000147305
15 *808:A2 *72:8 0.00113565
*RES
1 *773:ZN *72:8 8.604 
2 *72:8 *811:A2 4.5 
3 *72:8 *812:A2 6.704 
*END

*D_NET *73 0.00174626
*CONN
*I *775:A4 I *D gf180mcu_fd_sc_mcu7t5v0__nor4_4
*I *774:ZN O *D gf180mcu_fd_sc_mcu7t5v0__nand2_1
*CAP
1 *775:A4 0.000228877
2 *774:ZN 0.000228877
3 *775:A4 *774:A2 5.05131e-05
4 *775:A4 *809:A1 0.000310356
5 *775:A4 *145:32 4.49487e-05
6 *775:A4 *175:29 0.000135327
7 *775:A4 *175:55 8.34666e-05
8 *775:A4 *175:85 7.90644e-05
9 *775:A4 *211:26 0.000194624
10 *808:A2 *775:A4 4.89699e-05
11 *809:A2 *775:A4 0.000255714
12 *66:12 *775:A4 8.55242e-05
*RES
1 *774:ZN *775:A4 21.344 
*END

*D_NET *74 0.00287816
*CONN
*I *778:A2 I *D gf180mcu_fd_sc_mcu7t5v0__xnor2_1
*I *776:A2 I *D gf180mcu_fd_sc_mcu7t5v0__nand2_1
*I *777:A2 I *D gf180mcu_fd_sc_mcu7t5v0__xor2_1
*I *775:ZN O *D gf180mcu_fd_sc_mcu7t5v0__nor4_4
*CAP
1 *778:A2 0
2 *776:A2 0.000107175
3 *777:A2 0.000434333
4 *775:ZN 0.000290061
5 *74:18 0.000251447
6 *776:A2 *776:A1 0.000436933
7 *776:A2 *852:A2 2.47727e-05
8 *776:A2 *211:26 9.26705e-05
9 *777:A2 *775:A2 9.88736e-06
10 *777:A2 *777:A1 9.26705e-05
11 *777:A2 *830:A1 0
12 *777:A2 *830:B 0.00011703
13 *777:A2 *830:C 1.66847e-05
14 *777:A2 *126:10 0.000163097
15 *777:A2 *152:14 2.03665e-05
16 *777:A2 *152:22 0.000708619
17 *74:18 *777:A1 5.8669e-05
18 *74:18 *211:26 0
19 *871:D *777:A2 5.37472e-05
*RES
1 *775:ZN *777:A2 12.268 
2 *777:A2 *74:18 5.488 
3 *74:18 *776:A2 14.868 
4 *74:18 *778:A2 4.5 
*END

*D_NET *75 0.00265884
*CONN
*I *783:A2 I *D gf180mcu_fd_sc_mcu7t5v0__xor2_1
*I *776:ZN O *D gf180mcu_fd_sc_mcu7t5v0__nand2_1
*CAP
1 *783:A2 0.000589647
2 *776:ZN 0.000589647
3 *783:A2 *776:A1 9.88736e-06
4 *783:A2 *783:A1 0
5 *783:A2 *875:RN 0.000239669
6 *783:A2 *901:I 0.000121492
7 *783:A2 *77:8 0.00010968
8 *783:A2 *132:160 0.000468021
9 *783:A2 *194:26 0.000244438
10 *783:A2 *211:26 0.000286358
*RES
1 *776:ZN *783:A2 15.612 
*END

*D_NET *76 0.000584991
*CONN
*I *830:C I *D gf180mcu_fd_sc_mcu7t5v0__oai211_1
*I *777:Z O *D gf180mcu_fd_sc_mcu7t5v0__xor2_1
*CAP
1 *830:C 0.000227141
2 *777:Z 0.000227141
3 *830:C *830:A1 5.53027e-05
4 *830:C *850:A2 5.87219e-05
5 *830:C *211:26 0
6 *777:A2 *830:C 1.66847e-05
*RES
1 *777:Z *830:C 10.444 
*END

*D_NET *77 0.00250986
*CONN
*I *782:A2 I *D gf180mcu_fd_sc_mcu7t5v0__oai21_1
*I *814:A1 I *D gf180mcu_fd_sc_mcu7t5v0__nor2_1
*I *778:ZN O *D gf180mcu_fd_sc_mcu7t5v0__xnor2_1
*CAP
1 *782:A2 0.000427517
2 *814:A1 0.000218187
3 *778:ZN 0.00013661
4 *77:8 0.000782314
5 *782:A2 *852:A2 0.00021882
6 *814:A1 *852:A2 2.72748e-05
7 *814:A1 *175:63 0.000136871
8 *814:A1 *211:26 0.000441063
9 *77:8 *875:RN 1.15244e-05
10 *783:A2 *77:8 0.00010968
11 *875:D *814:A1 0
*RES
1 *778:ZN *77:8 9.988 
2 *77:8 *814:A1 11.128 
3 *77:8 *782:A2 12.572 
*END

*D_NET *78 0.00443232
*CONN
*I *956:I I *D gf180mcu_fd_sc_mcu7t5v0__dlyb_1
*I *910:I I *D gf180mcu_fd_sc_mcu7t5v0__dlyb_1
*I *779:ZN O *D gf180mcu_fd_sc_mcu7t5v0__nor2_1
*CAP
1 *956:I 0.000447926
2 *910:I 0.000311537
3 *779:ZN 8.01238e-05
4 *78:6 0.000839587
5 *910:I *833:B1 0.000168839
6 *910:I *835:A2 0
7 *910:I *112:29 8.36287e-05
8 *910:I *125:21 7.79953e-05
9 *956:I *125:6 0.000398746
10 *956:I *125:21 0
11 *956:I *180:21 0
12 *78:6 *779:A1 0.000674457
13 *78:6 *125:6 7.83779e-05
14 *771:A2 *956:I 1.43468e-05
15 *838:A3 *956:I 2.6126e-05
16 *838:A3 *78:6 0.000726709
17 *868:D *956:I 2.22657e-05
18 *924:I *956:I 4.75335e-05
19 *66:96 *910:I 0.000177324
20 *66:96 *956:I 0.000168167
21 *69:12 *910:I 2.0118e-05
22 *70:8 *956:I 6.8509e-05
23 *70:20 *956:I 0
*RES
1 *779:ZN *78:6 6.552 
2 *78:6 *910:I 16.084 
3 *78:6 *956:I 16.844 
*END

*D_NET *79 0.00282298
*CONN
*I *925:I I *D gf180mcu_fd_sc_mcu7t5v0__buf_2
*I *824:A1 I *D gf180mcu_fd_sc_mcu7t5v0__oai21_1
*I *780:ZN O *D gf180mcu_fd_sc_mcu7t5v0__nand2_2
*CAP
1 *925:I 0
2 *824:A1 0.00066476
3 *780:ZN 0.000364745
4 *79:10 0.00102951
5 *824:A1 *780:A1 0
6 *824:A1 *796:A1 5.21161e-05
7 *824:A1 *827:A2 4.78829e-05
8 *824:A1 *106:8 5.23559e-05
9 *824:A1 *153:40 6.31406e-05
10 *824:A1 *153:42 0.000164302
11 *824:A1 *172:22 0
12 *824:A1 *175:14 8.49711e-05
13 *824:A1 *181:32 0
14 *79:10 *780:A1 4.72007e-05
15 *79:10 *796:A1 6.67259e-05
16 *79:10 *868:RN 3.22641e-05
17 *79:10 *897:I 0.000118712
18 *79:10 *132:93 3.42926e-05
19 *79:10 *180:10 0
20 *769:A3 *824:A1 0
*RES
1 *780:ZN *79:10 11.584 
2 *79:10 *824:A1 13.636 
3 *79:10 *925:I 9 
*END

*D_NET *80 0.0016419
*CONN
*I *782:B I *D gf180mcu_fd_sc_mcu7t5v0__oai21_1
*I *781:ZN O *D gf180mcu_fd_sc_mcu7t5v0__nand2_1
*CAP
1 *782:B 0.00059846
2 *781:ZN 0.00059846
3 *782:B *781:A2 0
4 *782:B *851:A1 0.000264187
5 *782:B *852:A2 1.16164e-05
6 *782:B *852:B 0
7 *782:B *863:RN 0.000141897
8 *782:B *171:42 0
9 *863:D *782:B 2.72804e-05
*RES
1 *781:ZN *782:B 22.712 
*END

*D_NET *81 0.00202801
*CONN
*I *785:A2 I *D gf180mcu_fd_sc_mcu7t5v0__oai21_1
*I *815:A2 I *D gf180mcu_fd_sc_mcu7t5v0__nor2_1
*I *783:Z O *D gf180mcu_fd_sc_mcu7t5v0__xor2_1
*CAP
1 *785:A2 0.00033723
2 *815:A2 0.000323365
3 *783:Z 0
4 *81:6 0.000660595
5 *785:A2 *761:A1 0
6 *785:A2 *763:A1 0
7 *785:A2 *885:RN 0.000139324
8 *785:A2 *139:20 0.000248576
9 *815:A2 *761:A1 0
10 *815:A2 *763:A1 0
11 *815:A2 *885:RN 4.88658e-05
12 *815:A2 *132:123 0
13 *865:D *785:A2 0.000248576
14 *882:D *785:A2 2.14818e-05
*RES
1 *783:Z *81:6 9 
2 *81:6 *815:A2 10.9 
3 *81:6 *785:A2 12.192 
*END

*D_NET *82 0.00093682
*CONN
*I *785:B I *D gf180mcu_fd_sc_mcu7t5v0__oai21_1
*I *784:ZN O *D gf180mcu_fd_sc_mcu7t5v0__nand2_1
*CAP
1 *785:B 5.07919e-05
2 *784:ZN 5.07919e-05
3 *785:B *761:A1 0.000476427
4 *785:B *761:A2 0.000279004
5 *882:D *785:B 7.98048e-05
*RES
1 *784:ZN *785:B 19.444 
*END

*D_NET *83 0.000222399
*CONN
*I *788:B I *D gf180mcu_fd_sc_mcu7t5v0__oai21_1
*I *786:ZN O *D gf180mcu_fd_sc_mcu7t5v0__nand3_1
*CAP
1 *788:B 5.27392e-05
2 *786:ZN 5.27392e-05
3 *788:B *866:CLK 0
4 *788:B *182:30 8.55327e-05
5 *788:B *191:22 2.68021e-05
6 *866:D *788:B 4.58601e-06
*RES
1 *786:ZN *788:B 9.456 
*END

*D_NET *84 0.00417711
*CONN
*I *840:A2 I *D gf180mcu_fd_sc_mcu7t5v0__oai22_1
*I *788:A2 I *D gf180mcu_fd_sc_mcu7t5v0__oai21_1
*I *787:ZN O *D gf180mcu_fd_sc_mcu7t5v0__nand2_1
*CAP
1 *840:A2 0.000761825
2 *788:A2 0.000468445
3 *787:ZN 3.28034e-05
4 *84:6 0.00126307
5 *788:A2 *766:A1 2.57058e-06
6 *788:A2 *867:RN 2.11524e-05
7 *788:A2 *928:I 0.000137776
8 *788:A2 *182:30 3.36949e-05
9 *788:A2 *182:39 1.28529e-05
10 *840:A2 *787:A2 4.62289e-05
11 *840:A2 *821:A3 0.000281857
12 *840:A2 *822:I 3.79212e-05
13 *840:A2 *824:A2 0.000299171
14 *840:A2 *840:B1 0.000405097
15 *840:A2 *104:8 6.36589e-05
16 *840:A2 *104:14 5.49771e-05
17 *840:A2 *133:31 7.53241e-05
18 *840:A2 *155:12 7.83779e-05
19 *857:D *840:A2 2.55651e-06
20 *876:D *840:A2 1.53689e-05
21 *65:14 *788:A2 0
22 *65:14 *840:A2 0
23 *65:20 *840:A2 4.13816e-05
24 *66:53 *840:A2 4.09927e-05
*RES
1 *787:ZN *84:6 4.728 
2 *84:6 *788:A2 7.692 
3 *84:6 *840:A2 11.036 
*END

*D_NET *85 0.010944
*CONN
*I *840:B1 I *D gf180mcu_fd_sc_mcu7t5v0__oai22_1
*I *824:B I *D gf180mcu_fd_sc_mcu7t5v0__oai21_1
*I *826:A1 I *D gf180mcu_fd_sc_mcu7t5v0__aoi22_1
*I *791:A1 I *D gf180mcu_fd_sc_mcu7t5v0__nor2_1
*I *820:A2 I *D gf180mcu_fd_sc_mcu7t5v0__oai22_1
*I *789:ZN O *D gf180mcu_fd_sc_mcu7t5v0__nand2_1
*CAP
1 *840:B1 0.000438564
2 *824:B 1.96704e-05
3 *826:A1 0
4 *791:A1 0.000744242
5 *820:A2 0.000676692
6 *789:ZN 7.65756e-05
7 *85:55 0.000645851
8 *85:22 0.00153014
9 *85:16 0.000335739
10 *85:10 0.000490724
11 *791:A1 *826:B1 6.48311e-06
12 *791:A1 *866:CLK 5.43717e-05
13 *820:A2 *749:I 6.26869e-05
14 *820:A2 *820:B2 0
15 *820:A2 *826:B2 0.00055136
16 *820:A2 *878:CLK 0
17 *824:B *181:8 0.000193889
18 *840:B1 *821:A2 0.000215304
19 *840:B1 *821:A3 0.000307983
20 *840:B1 *822:I 7.32209e-05
21 *840:B1 *823:A1 3.47244e-05
22 *840:B1 *824:A2 8.46598e-05
23 *840:B1 *106:8 0.000553189
24 *840:B1 *133:31 1.72912e-05
25 *840:B1 *153:29 0
26 *840:B1 *153:40 0
27 *840:B1 *154:27 0.000147313
28 *840:B1 *155:12 7.83779e-05
29 *840:B1 *172:22 3.07722e-05
30 *85:10 *181:8 6.13012e-05
31 *85:10 *191:22 0.000317503
32 *85:16 *188:10 0
33 *85:16 *191:22 2.30518e-05
34 *85:22 *826:B1 2.49387e-05
35 *85:22 *188:10 6.03906e-05
36 *85:22 *191:22 9.87535e-06
37 *85:55 *823:A1 0
38 *85:55 *181:8 0.000628779
39 *789:A2 *85:10 4.50449e-05
40 *789:A2 *85:55 0
41 *825:A4 *85:55 1.58383e-05
42 *840:A1 *840:B1 1.5015e-05
43 *840:A2 *840:B1 0.000405097
44 *877:D *820:A2 0
45 *878:D *820:A2 0.000808083
46 *878:D *85:22 0.00032266
47 *879:D *820:A2 0
48 *66:53 *824:B 0.000187262
49 *66:53 *85:55 0.000649322
*RES
1 *789:ZN *85:10 10.064 
2 *85:10 *85:16 5.868 
3 *85:16 *85:22 5.716 
4 *85:22 *820:A2 15.004 
5 *85:22 *791:A1 13.484 
6 *85:16 *826:A1 4.5 
7 *85:10 *85:55 7.084 
8 *85:55 *824:B 5.032 
9 *85:55 *840:B1 18.668 
*END

*D_NET *86 0.00197321
*CONN
*I *791:A2 I *D gf180mcu_fd_sc_mcu7t5v0__nor2_1
*I *790:ZN O *D gf180mcu_fd_sc_mcu7t5v0__nor2_1
*CAP
1 *791:A2 0.000217821
2 *790:ZN 0.000217821
3 *791:A2 *786:A3 2.14818e-05
4 *791:A2 *867:CLK 5.40431e-05
5 *791:A2 *182:22 0.000787074
6 *791:A2 *182:30 0
7 *791:A2 *216:14 0.000123561
8 *791:A2 *216:20 0.000551409
*RES
1 *790:ZN *791:A2 21.192 
*END

*D_NET *87 0.00272284
*CONN
*I *795:A2 I *D gf180mcu_fd_sc_mcu7t5v0__xor2_1
*I *794:A2 I *D gf180mcu_fd_sc_mcu7t5v0__xnor2_1
*I *792:ZN O *D gf180mcu_fd_sc_mcu7t5v0__nand3_1
*CAP
1 *795:A2 0.00015838
2 *794:A2 0.000277314
3 *792:ZN 0.000118934
4 *794:A2 *792:A1 2.47642e-05
5 *794:A2 *797:A1 0.000260709
6 *794:A2 *844:A2 2.64841e-05
7 *794:A2 *126:41 0.000142185
8 *794:A2 *141:36 0.000541992
9 *795:A2 *795:A1 0.000766415
10 *795:A2 *132:93 0.00020136
11 *795:A2 *141:36 5.4634e-05
12 *793:A4 *794:A2 0.00014967
*RES
1 *792:ZN *794:A2 20.052 
2 *794:A2 *795:A2 11.204 
*END

*D_NET *88 0.00164641
*CONN
*I *799:A2 I *D gf180mcu_fd_sc_mcu7t5v0__xnor2_1
*I *800:A2 I *D gf180mcu_fd_sc_mcu7t5v0__xor2_1
*I *793:ZN O *D gf180mcu_fd_sc_mcu7t5v0__nand4_1
*CAP
1 *799:A2 0.000142002
2 *800:A2 6.65763e-05
3 *793:ZN 8.88952e-05
4 *88:8 0.000297474
5 *799:A2 *798:A4 0.000119798
6 *799:A2 *829:A1 0.000300836
7 *799:A2 *829:A2 1.97747e-05
8 *799:A2 *132:78 8.80676e-05
9 *799:A2 *132:82 7.58094e-05
10 *799:A2 *132:84 9.88736e-06
11 *799:A2 *141:36 2.29777e-05
12 *800:A2 *793:A2 2.20428e-05
13 *800:A2 *798:A4 0.000126956
14 *800:A2 *141:36 1.13356e-05
15 *88:8 *829:A1 8.7332e-05
16 *88:8 *112:18 0.000164236
17 *88:8 *132:93 2.40654e-06
*RES
1 *793:ZN *88:8 9.988 
2 *88:8 *800:A2 9.684 
3 *88:8 *799:A2 10.824 
*END

*D_NET *89 0.00155509
*CONN
*I *829:A1 I *D gf180mcu_fd_sc_mcu7t5v0__oai211_1
*I *794:ZN O *D gf180mcu_fd_sc_mcu7t5v0__xnor2_1
*CAP
1 *829:A1 0.000177981
2 *794:ZN 0.000177981
3 *829:A1 *798:A4 4.92886e-05
4 *829:A1 *829:A2 0.000276126
5 *829:A1 *829:C 0.000378609
6 *829:A1 *112:18 2.41876e-05
7 *829:A1 *132:84 4.91241e-05
8 *829:A1 *132:93 3.36218e-05
9 *799:A2 *829:A1 0.000300836
10 *88:8 *829:A1 8.7332e-05
*RES
1 *794:ZN *829:A1 20.584 
*END

*D_NET *90 0.0039313
*CONN
*I *796:A2 I *D gf180mcu_fd_sc_mcu7t5v0__nor2_1
*I *842:A2 I *D gf180mcu_fd_sc_mcu7t5v0__oai21_1
*I *795:Z O *D gf180mcu_fd_sc_mcu7t5v0__xor2_1
*CAP
1 *796:A2 0
2 *842:A2 0.000785594
3 *795:Z 0.000219129
4 *90:8 0.00100472
5 *842:A2 *833:B1 0.000152715
6 *842:A2 *839:A2 0.000773041
7 *842:A2 *839:B 9.7414e-06
8 *842:A2 *942:I 1.20889e-05
9 *90:8 *796:A1 0.000201263
10 *835:A1 *842:A2 0.00013063
11 *838:A3 *842:A2 0.000272297
12 *853:D *842:A2 4.02478e-05
13 *856:D *842:A2 2.9378e-06
14 *858:D *842:A2 0.000141629
15 *70:20 *842:A2 0.000185267
*RES
1 *795:Z *90:8 11.052 
2 *90:8 *842:A2 24.764 
3 *90:8 *796:A2 9 
*END

*D_NET *91 0.00385289
*CONN
*I *798:A4 I *D gf180mcu_fd_sc_mcu7t5v0__nor4_4
*I *797:ZN O *D gf180mcu_fd_sc_mcu7t5v0__nand2_1
*CAP
1 *798:A4 0.00067805
2 *797:ZN 0.00067805
3 *798:A4 *793:A2 2.18346e-05
4 *798:A4 *797:A2 4.71425e-05
5 *798:A4 *804:A1 0.0002221
6 *798:A4 *806:A1 0.000147916
7 *798:A4 *806:A2 0.000787074
8 *798:A4 *829:A2 0.000111727
9 *798:A4 *829:C 0.000224706
10 *798:A4 *930:I 0
11 *798:A4 *141:36 0
12 *798:A4 *142:10 0.000300828
13 *798:A4 *142:16 1.4379e-05
14 *798:A4 *212:12 0
15 *799:A2 *798:A4 0.000119798
16 *800:A2 *798:A4 0.000126956
17 *829:A1 *798:A4 4.92886e-05
18 *66:32 *798:A4 0.000323039
*RES
1 *797:ZN *798:A4 26.208 
*END

*D_NET *92 0.00369495
*CONN
*I *804:A2 I *D gf180mcu_fd_sc_mcu7t5v0__xnor2_1
*I *802:A2 I *D gf180mcu_fd_sc_mcu7t5v0__nand2_1
*I *803:A2 I *D gf180mcu_fd_sc_mcu7t5v0__xor2_1
*I *798:ZN O *D gf180mcu_fd_sc_mcu7t5v0__nor4_4
*CAP
1 *804:A2 8.04542e-05
2 *802:A2 0.000374654
3 *803:A2 0
4 *798:ZN 0.000228399
5 *92:6 0.000522599
6 *802:A2 *802:A1 8.69929e-05
7 *802:A2 *804:A1 7.24161e-06
8 *802:A2 *126:10 4.69366e-05
9 *802:A2 *126:20 2.976e-05
10 *802:A2 *143:25 2.89664e-05
11 *804:A2 *804:A1 0.000509981
12 *804:A2 *829:B 2.25184e-05
13 *804:A2 *144:8 0
14 *92:6 *804:A1 0.000101813
15 *92:6 *829:B 0.00114022
16 *798:A3 *804:A2 0.000154451
17 *798:A3 *92:6 0.000326266
18 *870:D *802:A2 3.36949e-05
19 *870:D *92:6 0
*RES
1 *798:ZN *92:6 7.616 
2 *92:6 *803:A2 4.5 
3 *92:6 *802:A2 7.16 
4 *798:ZN *804:A2 10.292 
*END

*D_NET *93 0.000614517
*CONN
*I *829:A2 I *D gf180mcu_fd_sc_mcu7t5v0__oai211_1
*I *799:ZN O *D gf180mcu_fd_sc_mcu7t5v0__xnor2_1
*CAP
1 *829:A2 6.31487e-05
2 *799:ZN 6.31487e-05
3 *829:A2 *829:B 7.45328e-07
4 *829:A2 *112:18 7.98466e-05
5 *829:A2 *126:28 0
6 *798:A4 *829:A2 0.000111727
7 *799:A2 *829:A2 1.97747e-05
8 *829:A1 *829:A2 0.000276126
*RES
1 *799:ZN *829:A2 19.14 
*END

*D_NET *94 0.00446818
*CONN
*I *801:A2 I *D gf180mcu_fd_sc_mcu7t5v0__nor2_1
*I *844:A2 I *D gf180mcu_fd_sc_mcu7t5v0__oai21_1
*I *800:Z O *D gf180mcu_fd_sc_mcu7t5v0__xor2_1
*CAP
1 *801:A2 0
2 *844:A2 0.000781634
3 *800:Z 0.00031763
4 *94:12 0.00109926
5 *844:A2 *792:A1 5.93437e-05
6 *844:A2 *796:A1 4.80846e-05
7 *844:A2 *839:A2 0.000160711
8 *844:A2 *868:RN 0.001007
9 *844:A2 *930:I 9.10657e-05
10 *844:A2 *126:41 5.98764e-05
11 *844:A2 *141:36 0
12 *94:12 *792:A2 0.000106036
13 *94:12 *113:26 0.000199359
14 *94:12 *212:43 6.26869e-05
15 *794:A2 *844:A2 2.64841e-05
16 *869:D *844:A2 0.000449002
*RES
1 *800:Z *94:12 6.932 
2 *94:12 *844:A2 21.024 
3 *94:12 *801:A2 4.5 
*END

*D_NET *95 0.00648667
*CONN
*I *806:A2 I *D gf180mcu_fd_sc_mcu7t5v0__xor2_1
*I *802:ZN O *D gf180mcu_fd_sc_mcu7t5v0__nand2_1
*CAP
1 *806:A2 0.000564276
2 *802:ZN 0.000564276
3 *806:A2 *802:A1 0.000268267
4 *806:A2 *804:A1 0.00034799
5 *806:A2 *805:A2 0.00171436
6 *806:A2 *806:A1 9.4764e-05
7 *806:A2 *807:A2 0.000469567
8 *806:A2 *850:A1 7.08923e-06
9 *806:A2 *913:I 0.000398787
10 *806:A2 *97:6 0.000509981
11 *806:A2 *142:10 0.000376439
12 *806:A2 *143:10 0.000202899
13 *806:A2 *143:25 0.000180901
14 *798:A4 *806:A2 0.000787074
*RES
1 *802:ZN *806:A2 28.716 
*END

*D_NET *96 0.00353457
*CONN
*I *829:B I *D gf180mcu_fd_sc_mcu7t5v0__oai211_1
*I *803:Z O *D gf180mcu_fd_sc_mcu7t5v0__xor2_1
*CAP
1 *829:B 0.000780446
2 *803:Z 0.000780446
3 *829:B *798:A2 0.000134113
4 *829:B *113:26 2.65844e-05
5 *829:B *126:28 0.000159117
6 *829:B *132:78 0
7 *829:B *142:10 0.000118069
8 *829:B *142:16 0.000130983
9 *829:B *144:8 0.000119866
10 *829:B *189:10 0
11 *829:B *212:12 0.000100944
12 *798:A3 *829:B 2.05156e-05
13 *804:A2 *829:B 2.25184e-05
14 *829:A2 *829:B 7.45328e-07
15 *870:D *829:B 0
16 *92:6 *829:B 0.00114022
*RES
1 *803:Z *829:B 25.98 
*END

*D_NET *97 0.00841127
*CONN
*I *805:A2 I *D gf180mcu_fd_sc_mcu7t5v0__nor2_1
*I *846:A2 I *D gf180mcu_fd_sc_mcu7t5v0__oai21_1
*I *804:ZN O *D gf180mcu_fd_sc_mcu7t5v0__xnor2_1
*CAP
1 *805:A2 0.000537224
2 *846:A2 0.000298779
3 *804:ZN 1.37604e-05
4 *97:6 0.000849763
5 *805:A2 *775:A2 0.000324233
6 *805:A2 *807:A1 0.000100112
7 *805:A2 *850:A1 2.97523e-05
8 *805:A2 *861:CLK 0.000291432
9 *805:A2 *913:I 0.000248576
10 *805:A2 *98:12 2.84711e-05
11 *805:A2 *126:20 1.20889e-05
12 *805:A2 *152:22 0.000101621
13 *805:A2 *175:85 1.5015e-05
14 *846:A2 *806:A1 0
15 *846:A2 *846:B 0.000448993
16 *846:A2 *870:RN 3.89408e-05
17 *846:A2 *871:CLK 0.000523943
18 *846:A2 *136:37 0.000523959
19 *846:A2 *189:19 1.28891e-05
20 *97:6 *913:I 0.000502835
21 *806:A2 *805:A2 0.00171436
22 *806:A2 *97:6 0.000509981
23 *860:D *846:A2 0
24 *870:D *805:A2 0.000216312
25 *871:D *805:A2 0.00106824
*RES
1 *804:ZN *97:6 5.792 
2 *97:6 *846:A2 17.224 
3 *97:6 *805:A2 22.088 
*END

*D_NET *98 0.00540669
*CONN
*I *807:A2 I *D gf180mcu_fd_sc_mcu7t5v0__nor2_1
*I *848:A2 I *D gf180mcu_fd_sc_mcu7t5v0__oai21_1
*I *806:Z O *D gf180mcu_fd_sc_mcu7t5v0__xor2_1
*CAP
1 *807:A2 0.00047196
2 *848:A2 0
3 *806:Z 0.00114987
4 *98:12 0.00162183
5 *807:A2 *802:A1 5.26706e-05
6 *807:A2 *850:A1 0.000136874
7 *807:A2 *850:A2 0
8 *807:A2 *143:10 0.000217082
9 *807:A2 *152:22 0
10 *98:12 *844:B 0
11 *98:12 *846:B 0
12 *98:12 *850:A1 9.88736e-06
13 *98:12 *861:CLK 0.000149398
14 *98:12 *870:RN 0.000218463
15 *98:12 *136:8 0.000142175
16 *98:12 *136:26 0.000111199
17 *98:12 *136:33 9.026e-05
18 *98:12 *143:10 5.29053e-05
19 *805:A2 *98:12 2.84711e-05
20 *806:A2 *807:A2 0.000469567
21 *859:D *98:12 4.26315e-06
22 *861:D *98:12 0.000386421
23 *862:D *807:A2 0
24 *871:D *807:A2 9.33869e-05
25 *871:D *98:12 0
*RES
1 *806:Z *98:12 13.468 
2 *98:12 *848:A2 4.5 
3 *98:12 *807:A2 17.908 
*END

*D_NET *99 0.000832309
*CONN
*I *830:A1 I *D gf180mcu_fd_sc_mcu7t5v0__oai211_1
*I *808:Z O *D gf180mcu_fd_sc_mcu7t5v0__xor2_1
*CAP
1 *830:A1 0.000244484
2 *808:Z 0.000244484
3 *830:A1 *830:A2 3.00343e-05
4 *830:A1 *113:26 0.000184777
5 *830:A1 *211:26 7.32274e-05
6 *777:A2 *830:A1 0
7 *830:C *830:A1 5.53027e-05
*RES
1 *808:Z *830:A1 10.976 
*END

*D_NET *100 0.0043342
*CONN
*I *850:A2 I *D gf180mcu_fd_sc_mcu7t5v0__oai21_1
*I *810:A2 I *D gf180mcu_fd_sc_mcu7t5v0__nor2_1
*I *809:ZN O *D gf180mcu_fd_sc_mcu7t5v0__xnor2_1
*CAP
1 *850:A2 0.000727705
2 *810:A2 0.000724301
3 *809:ZN 0.00145201
4 *810:A2 *774:A1 0
5 *810:A2 *810:A1 8.55242e-05
6 *810:A2 *811:A1 0
7 *810:A2 *813:A2 0.000125651
8 *810:A2 *852:A2 5.56639e-05
9 *810:A2 *914:I 8.73298e-05
10 *810:A2 *175:29 0
11 *810:A2 *175:85 0
12 *810:A2 *197:23 8.10706e-06
13 *810:A2 *216:10 4.72461e-05
14 *850:A2 *830:B 0.000514812
15 *850:A2 *175:85 0.000150074
16 *850:A2 *211:26 7.53241e-05
17 *807:A2 *850:A2 0
18 *830:C *850:A2 5.87219e-05
19 *873:D *810:A2 0
20 *3:22 *810:A2 0.000221732
*RES
1 *809:ZN *810:A2 23.624 
2 *809:ZN *850:A2 23.472 
*END

*D_NET *101 0.000186821
*CONN
*I *830:A2 I *D gf180mcu_fd_sc_mcu7t5v0__oai211_1
*I *811:ZN O *D gf180mcu_fd_sc_mcu7t5v0__xnor2_1
*CAP
1 *830:A2 7.83931e-05
2 *811:ZN 7.83931e-05
3 *830:A1 *830:A2 3.00343e-05
*RES
1 *811:ZN *830:A2 9.532 
*END

*D_NET *102 0.00487846
*CONN
*I *852:A2 I *D gf180mcu_fd_sc_mcu7t5v0__oai21_1
*I *813:A2 I *D gf180mcu_fd_sc_mcu7t5v0__nor2_1
*I *812:Z O *D gf180mcu_fd_sc_mcu7t5v0__xor2_1
*CAP
1 *852:A2 0.000795479
2 *813:A2 0.000401249
3 *812:Z 0
4 *102:6 0.00119673
5 *813:A2 *813:A1 3.73627e-05
6 *813:A2 *132:33 0.000164686
7 *813:A2 *197:23 0.000571483
8 *852:A2 *776:A1 0.000716809
9 *852:A2 *147:12 0.000390052
10 *776:A2 *852:A2 2.47727e-05
11 *782:A2 *852:A2 0.00021882
12 *782:B *852:A2 1.16164e-05
13 *810:A2 *813:A2 0.000125651
14 *810:A2 *852:A2 5.56639e-05
15 *814:A1 *852:A2 2.72748e-05
16 *3:22 *813:A2 0.000140809
*RES
1 *812:Z *102:6 9 
2 *102:6 *813:A2 13.18 
3 *102:6 *852:A2 16.22 
*END

*D_NET *103 0.0025383
*CONN
*I *818:B I *D gf180mcu_fd_sc_mcu7t5v0__oai21_1
*I *816:ZN O *D gf180mcu_fd_sc_mcu7t5v0__nand3_1
*CAP
1 *818:B 7.12712e-05
2 *816:ZN 7.12712e-05
3 *818:B *748:I 0.000249128
4 *818:B *816:A1 0.00100531
5 *818:B *825:A3 7.83779e-05
6 *818:B *154:19 0.000898342
7 *818:B *181:8 0.000164595
*RES
1 *816:ZN *818:B 12.116 
*END

*D_NET *104 0.00413452
*CONN
*I *818:A2 I *D gf180mcu_fd_sc_mcu7t5v0__oai21_1
*I *828:A2 I *D gf180mcu_fd_sc_mcu7t5v0__oai31_1
*I *820:B1 I *D gf180mcu_fd_sc_mcu7t5v0__oai22_1
*I *817:ZN O *D gf180mcu_fd_sc_mcu7t5v0__nand2_1
*CAP
1 *818:A2 0
2 *828:A2 0.000220383
3 *820:B1 0.000153911
4 *817:ZN 0.000262847
5 *104:14 0.000828735
6 *104:8 0.000717289
7 *820:B1 *749:I 0
8 *820:B1 *820:B2 0.000342519
9 *820:B1 *133:10 0.000211541
10 *828:A2 *825:A1 2.38523e-05
11 *828:A2 *878:RN 6.9258e-05
12 *828:A2 *188:12 0.000339879
13 *104:8 *824:A2 6.926e-05
14 *104:14 *749:I 0
15 *104:14 *825:A1 0.000140115
16 *104:14 *133:10 3.19219e-05
17 *104:14 *181:32 5.8775e-05
18 *840:A2 *104:8 6.36589e-05
19 *840:A2 *104:14 5.49771e-05
20 *876:D *104:14 0.000301608
21 *66:53 *104:8 0.000234819
22 *66:53 *104:14 9.17202e-06
*RES
1 *817:ZN *104:8 6.628 
2 *104:8 *104:14 8.148 
3 *104:14 *820:B1 10.9 
4 *104:14 *828:A2 11.052 
5 *104:8 *818:A2 4.5 
*END

*D_NET *105 0.00159825
*CONN
*I *820:B2 I *D gf180mcu_fd_sc_mcu7t5v0__oai22_1
*I *819:Z O *D gf180mcu_fd_sc_mcu7t5v0__xor2_1
*CAP
1 *820:B2 0.000311967
2 *819:Z 0.000311967
3 *820:B2 *820:A1 0
4 *820:B2 *876:RN 0.000182518
5 *820:B2 *133:10 0.000342519
6 *820:B2 *188:12 0.000106762
7 *820:A2 *820:B2 0
8 *820:B1 *820:B2 0.000342519
*RES
1 *819:Z *820:B2 21.04 
*END

*D_NET *106 0.00320703
*CONN
*I *822:I I *D gf180mcu_fd_sc_mcu7t5v0__clkinv_1
*I *823:A2 I *D gf180mcu_fd_sc_mcu7t5v0__nand2_1
*I *828:A3 I *D gf180mcu_fd_sc_mcu7t5v0__oai31_1
*I *821:ZN O *D gf180mcu_fd_sc_mcu7t5v0__nand3_1
*CAP
1 *822:I 0.00010595
2 *823:A2 0.000115185
3 *828:A3 0.000101808
4 *821:ZN 0
5 *106:8 0.000383126
6 *106:4 0.000272083
7 *822:I *172:22 0
8 *823:A2 *823:A1 0.000317503
9 *823:A2 *878:RN 0.000116636
10 *823:A2 *181:8 6.50663e-05
11 *823:A2 *191:22 3.00299e-05
12 *828:A3 *827:A2 9.33798e-05
13 *828:A3 *878:RN 0.000317373
14 *828:A3 *188:10 0.000108742
15 *106:8 *823:A1 1.75405e-05
16 *106:8 *827:A2 0.000239596
17 *106:8 *172:22 6.33531e-06
18 *106:8 *188:10 1.85312e-05
19 *824:A1 *106:8 5.23559e-05
20 *825:A4 *823:A2 0.000181456
21 *840:A2 *822:I 3.79212e-05
22 *840:B1 *822:I 7.32209e-05
23 *840:B1 *106:8 0.000553189
*RES
1 *821:ZN *106:4 4.5 
2 *106:4 *106:8 6.704 
3 *106:8 *828:A3 10.292 
4 *106:8 *823:A2 10.748 
5 *106:4 *822:I 5.184 
*END

*D_NET *107 0.000766995
*CONN
*I *824:A2 I *D gf180mcu_fd_sc_mcu7t5v0__oai21_1
*I *822:ZN O *D gf180mcu_fd_sc_mcu7t5v0__clkinv_1
*CAP
1 *824:A2 0.000109436
2 *822:ZN 0.000109436
3 *824:A2 *172:22 9.50338e-05
4 *840:A2 *824:A2 0.000299171
5 *840:B1 *824:A2 8.46598e-05
6 *104:8 *824:A2 6.926e-05
*RES
1 *822:ZN *824:A2 19.368 
*END

*D_NET *108 0.000109345
*CONN
*I *826:A2 I *D gf180mcu_fd_sc_mcu7t5v0__aoi22_1
*I *823:ZN O *D gf180mcu_fd_sc_mcu7t5v0__nand2_1
*CAP
1 *826:A2 5.46724e-05
2 *823:ZN 5.46724e-05
*RES
1 *823:ZN *826:A2 9.38 
*END

*D_NET *109 0.00265731
*CONN
*I *827:A2 I *D gf180mcu_fd_sc_mcu7t5v0__nand2_1
*I *824:ZN O *D gf180mcu_fd_sc_mcu7t5v0__oai21_1
*CAP
1 *827:A2 0.000252335
2 *824:ZN 0.000252335
3 *827:A2 *749:I 4.14731e-05
4 *827:A2 *825:A2 6.02669e-05
5 *827:A2 *827:A1 0.000111727
6 *827:A2 *828:B 0.000285856
7 *827:A2 *878:RN 0.000333388
8 *827:A2 *153:42 2.6058e-05
9 *827:A2 *156:27 0.000623573
10 *827:A2 *188:10 1.80992e-05
11 *824:A1 *827:A2 4.78829e-05
12 *828:A3 *827:A2 9.33798e-05
13 *879:D *827:A2 0.000271336
14 *106:8 *827:A2 0.000239596
*RES
1 *824:ZN *827:A2 22.788 
*END

*D_NET *110 0.00107747
*CONN
*I *826:B1 I *D gf180mcu_fd_sc_mcu7t5v0__aoi22_1
*I *825:ZN O *D gf180mcu_fd_sc_mcu7t5v0__nand4_1
*CAP
1 *826:B1 0.00040129
2 *825:ZN 0.00040129
3 *826:B1 *878:RN 2.6126e-05
4 *826:B1 *879:RN 4.27914e-05
5 *826:B1 *156:10 0.000128381
6 *826:B1 *188:12 4.61725e-05
7 *826:B1 *191:22 0
8 *791:A1 *826:B1 6.48311e-06
9 *85:22 *826:B1 2.49387e-05
*RES
1 *825:ZN *826:B1 11.584 
*END

*D_NET *111 0.000571985
*CONN
*I *828:B I *D gf180mcu_fd_sc_mcu7t5v0__oai31_1
*I *827:ZN O *D gf180mcu_fd_sc_mcu7t5v0__nand2_1
*CAP
1 *828:B 1.36364e-07
2 *827:ZN 1.36364e-07
3 *828:B *827:A1 0.000285856
4 *827:A2 *828:B 0.000285856
*RES
1 *827:ZN *828:B 18.684 
*END

*D_NET *112 0.00862577
*CONN
*I *831:A1 I *D gf180mcu_fd_sc_mcu7t5v0__and2_1
*I *833:B1 I *D gf180mcu_fd_sc_mcu7t5v0__oai32_1
*I *832:A1 I *D gf180mcu_fd_sc_mcu7t5v0__aoi21_1
*I *829:ZN O *D gf180mcu_fd_sc_mcu7t5v0__oai211_1
*CAP
1 *831:A1 0
2 *833:B1 0.000281068
3 *832:A1 7.44095e-05
4 *829:ZN 0.000655749
5 *112:29 0.000587951
6 *112:18 0.00103704
7 *832:A1 *751:I 0.000311163
8 *832:A1 *832:A2 0.000155959
9 *832:A1 *834:A1 0
10 *832:A1 *857:RN 1.2018e-05
11 *833:B1 *942:I 0.000145252
12 *833:B1 *125:21 0.000355744
13 *833:B1 *125:27 0.000177496
14 *112:18 *751:I 0.000339645
15 *112:18 *780:A1 0.000190317
16 *112:18 *793:A1 5.94067e-05
17 *112:18 *793:A2 0.000241516
18 *112:18 *832:A2 0.000185241
19 *112:18 *839:A2 0.000431535
20 *112:18 *868:RN 0.000129043
21 *112:18 *895:I 0.00010242
22 *112:18 *113:26 0.000357974
23 *112:18 *126:28 9.244e-05
24 *112:18 *132:93 0
25 *112:18 *141:10 0.000925993
26 *112:18 *180:10 0.000399641
27 *112:29 *751:I 8.79079e-05
28 *112:29 *942:I 0.000112737
29 *780:A2 *112:18 2.67896e-05
30 *829:A1 *112:18 2.41876e-05
31 *829:A2 *112:18 7.98466e-05
32 *832:B *832:A1 1.44832e-05
33 *832:B *112:18 2.13579e-05
34 *835:A1 *833:B1 7.83779e-05
35 *838:A3 *833:B1 7.38371e-06
36 *842:A2 *833:B1 0.000152715
37 *856:D *833:B1 4.01734e-05
38 *910:I *833:B1 0.000168839
39 *910:I *112:29 8.36287e-05
40 *66:96 *112:29 0.000186602
41 *70:20 *833:B1 0.000127484
42 *88:8 *112:18 0.000164236
*RES
1 *829:ZN *112:18 22.696 
2 *112:18 *832:A1 5.64 
3 *112:18 *112:29 7.312 
4 *112:29 *833:B1 12.344 
5 *112:29 *831:A1 9 
*END

*D_NET *113 0.011324
*CONN
*I *831:A2 I *D gf180mcu_fd_sc_mcu7t5v0__and2_1
*I *832:A2 I *D gf180mcu_fd_sc_mcu7t5v0__aoi21_1
*I *830:ZN O *D gf180mcu_fd_sc_mcu7t5v0__oai211_1
*CAP
1 *831:A2 0.000474398
2 *832:A2 0.000251412
3 *830:ZN 0.00138466
4 *113:26 0.00211047
5 *831:A2 *180:10 0
6 *832:A2 *857:RN 0.00025069
7 *113:26 *775:A2 0.000231805
8 *113:26 *798:A2 0.000126956
9 *113:26 *807:A1 9.26705e-05
10 *113:26 *869:CLK 0.00117974
11 *113:26 *927:I 0.000203989
12 *113:26 *126:28 0.000441693
13 *113:26 *132:69 8.74156e-05
14 *113:26 *132:78 0.000379306
15 *113:26 *141:10 0.000240138
16 *113:26 *142:16 0.000431543
17 *113:26 *152:22 5.89312e-05
18 *113:26 *175:8 6.26721e-05
19 *113:26 *175:85 0.000417311
20 *113:26 *189:10 0.000132326
21 *113:26 *211:26 0
22 *113:26 *212:12 0
23 *113:26 *212:19 0.000154876
24 *113:26 *212:43 7.6798e-06
25 *769:A3 *113:26 0
26 *780:A2 *831:A2 3.86561e-05
27 *780:A2 *113:26 0.000102455
28 *798:A3 *113:26 0.000141627
29 *829:B *113:26 2.65844e-05
30 *830:A1 *113:26 0.000184777
31 *832:A1 *832:A2 0.000155959
32 *832:B *113:26 3.07734e-05
33 *870:D *113:26 0.000124318
34 *66:32 *113:26 0.000901106
35 *66:96 *831:A2 0.000130907
36 *66:96 *113:26 2.36218e-05
37 *69:12 *831:A2 0
38 *94:12 *113:26 0.000199359
39 *112:18 *832:A2 0.000185241
40 *112:18 *113:26 0.000357974
*RES
1 *830:ZN *113:26 35.48 
2 *113:26 *832:A2 11.28 
3 *113:26 *831:A2 12.192 
*END

*D_NET *114 0.000409045
*CONN
*I *835:A2 I *D gf180mcu_fd_sc_mcu7t5v0__oai21_1
*I *831:Z O *D gf180mcu_fd_sc_mcu7t5v0__and2_1
*CAP
1 *835:A2 0.000155958
2 *831:Z 0.000155958
3 *835:A2 *160:8 7.91349e-05
4 *854:D *835:A2 1.79941e-05
5 *910:I *835:A2 0
*RES
1 *831:Z *835:A2 10.064 
*END

*D_NET *115 0.00609951
*CONN
*I *837:A2 I *D gf180mcu_fd_sc_mcu7t5v0__nor3_1
*I *833:A3 I *D gf180mcu_fd_sc_mcu7t5v0__oai32_1
*I *832:ZN O *D gf180mcu_fd_sc_mcu7t5v0__aoi21_1
*CAP
1 *837:A2 0.000389781
2 *833:A3 0
3 *832:ZN 0.000154892
4 *115:8 0.000544673
5 *837:A2 *837:A1 0.000338368
6 *837:A2 *842:B 5.98764e-05
7 *837:A2 *170:10 0.000214091
8 *837:A2 *170:25 2.47642e-05
9 *837:A2 *172:14 0.000228948
10 *837:A2 *205:12 0
11 *115:8 *751:I 7.87465e-05
12 *115:8 *835:B 0.000213194
13 *115:8 *170:10 0.000215676
14 *115:8 *172:14 0.00227123
15 *835:A1 *115:8 0.00136527
*RES
1 *832:ZN *115:8 14.7 
2 *115:8 *833:A3 9 
3 *115:8 *837:A2 12.496 
*END

*D_NET *116 0.000715584
*CONN
*I *835:B I *D gf180mcu_fd_sc_mcu7t5v0__oai21_1
*I *834:ZN O *D gf180mcu_fd_sc_mcu7t5v0__nand2_1
*CAP
1 *835:B 7.71793e-05
2 *834:ZN 7.71793e-05
3 *835:B *751:I 0.0001565
4 *835:B *172:14 0.000191531
5 *115:8 *835:B 0.000213194
*RES
1 *834:ZN *835:B 19.444 
*END

*D_NET *117 0.000287514
*CONN
*I *837:A3 I *D gf180mcu_fd_sc_mcu7t5v0__nor3_1
*I *836:ZN O *D gf180mcu_fd_sc_mcu7t5v0__nor2_1
*CAP
1 *837:A3 0.000106308
2 *836:ZN 0.000106308
3 *837:A3 *836:A1 4.50449e-05
4 *837:A3 *205:12 0
5 *836:A2 *837:A3 2.98535e-05
*RES
1 *836:ZN *837:A3 9.76 
*END

*D_NET *118 0.00170607
*CONN
*I *839:B I *D gf180mcu_fd_sc_mcu7t5v0__oai31_1
*I *838:ZN O *D gf180mcu_fd_sc_mcu7t5v0__nand3_1
*CAP
1 *839:B 0.000834201
2 *838:ZN 0.000834201
3 *839:B *833:A2 1.72572e-05
4 *839:B *838:A1 2.40654e-06
5 *838:A3 *839:B 8.26254e-06
6 *842:A2 *839:B 9.7414e-06
*RES
1 *838:ZN *839:B 31.104 
*END

*D_NET *119 0.00419248
*CONN
*I *842:B I *D gf180mcu_fd_sc_mcu7t5v0__oai21_1
*I *841:ZN O *D gf180mcu_fd_sc_mcu7t5v0__nand2_1
*CAP
1 *842:B 0.000730255
2 *841:ZN 0.000730255
3 *842:B *833:A2 4.94368e-05
4 *842:B *842:A1 0.000225791
5 *842:B *856:RN 0.000167702
6 *842:B *942:I 0
7 *842:B *170:25 0.000624994
8 *842:B *172:14 1.99058e-05
9 *842:B *185:12 7.51401e-05
10 *842:B *185:16 0.000220081
11 *842:B *205:12 9.4764e-05
12 *836:A2 *842:B 0.000546508
13 *837:A2 *842:B 5.98764e-05
14 *853:D *842:B 5.71374e-05
15 *856:D *842:B 2.47642e-05
16 *858:D *842:B 0.000371936
17 *924:I *842:B 0.000193933
*RES
1 *841:ZN *842:B 27.044 
*END

*D_NET *120 0.0008976
*CONN
*I *844:B I *D gf180mcu_fd_sc_mcu7t5v0__oai21_1
*I *843:ZN O *D gf180mcu_fd_sc_mcu7t5v0__nand2_1
*CAP
1 *844:B 0.000135073
2 *843:ZN 0.000135073
3 *844:B *844:A1 4.724e-05
4 *844:B *851:A2 0.000310356
5 *844:B *186:10 0.000269857
6 *98:12 *844:B 0
*RES
1 *843:ZN *844:B 19.52 
*END

*D_NET *121 0.00176557
*CONN
*I *846:B I *D gf180mcu_fd_sc_mcu7t5v0__oai21_1
*I *845:ZN O *D gf180mcu_fd_sc_mcu7t5v0__nand2_1
*CAP
1 *846:B 0.000325714
2 *845:ZN 0.000325714
3 *846:B *851:A2 0.000515568
4 *846:A2 *846:B 0.000448993
5 *860:D *846:B 0
6 *871:D *846:B 0.000149579
7 *98:12 *846:B 0
*RES
1 *845:ZN *846:B 21.344 
*END

*D_NET *122 0.000153083
*CONN
*I *848:B I *D gf180mcu_fd_sc_mcu7t5v0__oai21_1
*I *847:ZN O *D gf180mcu_fd_sc_mcu7t5v0__nand2_1
*CAP
1 *848:B 7.65413e-05
2 *847:ZN 7.65413e-05
3 *871:D *848:B 0
*RES
1 *847:ZN *848:B 9.532 
*END

*D_NET *123 0.000335783
*CONN
*I *850:B I *D gf180mcu_fd_sc_mcu7t5v0__oai21_1
*I *849:ZN O *D gf180mcu_fd_sc_mcu7t5v0__nand2_1
*CAP
1 *850:B 0.000167892
2 *849:ZN 0.000167892
3 *850:B *143:10 0
*RES
1 *849:ZN *850:B 19.14 
*END

*D_NET *124 0.00030956
*CONN
*I *852:B I *D gf180mcu_fd_sc_mcu7t5v0__oai21_1
*I *851:ZN O *D gf180mcu_fd_sc_mcu7t5v0__nand2_1
*CAP
1 *852:B 0.00015478
2 *851:ZN 0.00015478
3 *782:B *852:B 0
*RES
1 *851:ZN *852:B 19.14 
*END

*D_NET *125 0.00710437
*CONN
*I *839:A1 I *D gf180mcu_fd_sc_mcu7t5v0__oai31_1
*I *837:A1 I *D gf180mcu_fd_sc_mcu7t5v0__nor3_1
*I *833:A1 I *D gf180mcu_fd_sc_mcu7t5v0__oai32_1
*I *779:A1 I *D gf180mcu_fd_sc_mcu7t5v0__nor2_1
*I *745:ZN O *D gf180mcu_fd_sc_mcu7t5v0__clkinv_1
*CAP
1 *839:A1 0
2 *837:A1 0.000333947
3 *833:A1 5.42959e-05
4 *779:A1 0.000184769
5 *745:ZN 0.000123544
6 *125:27 0.000450389
7 *125:21 0.000184902
8 *125:6 0.000431068
9 *779:A1 *170:10 0.00013063
10 *833:A1 *135:22 3.76749e-05
11 *837:A1 *942:I 0.000650831
12 *125:27 *942:I 0.000136112
13 *833:B1 *125:21 0.000355744
14 *833:B1 *125:27 0.000177496
15 *836:A2 *837:A1 2.23477e-05
16 *837:A2 *837:A1 0.000338368
17 *838:A3 *779:A1 4.21224e-05
18 *838:A3 *125:27 3.83835e-06
19 *855:D *837:A1 0.000929153
20 *856:D *833:A1 0.000184871
21 *856:D *125:27 0.000237977
22 *868:D *125:6 2.44988e-05
23 *910:I *125:21 7.79953e-05
24 *956:I *125:6 0.000398746
25 *956:I *125:21 0
26 *66:96 *125:21 5.59809e-06
27 *69:12 *779:A1 0.000253746
28 *69:12 *125:6 0.000302227
29 *70:20 *837:A1 0.00014026
30 *70:20 *125:21 9.13326e-06
31 *70:20 *125:27 0.000129252
32 *78:6 *779:A1 0.000674457
33 *78:6 *125:6 7.83779e-05
*RES
1 *745:ZN *125:6 6.4 
2 *125:6 *779:A1 6.932 
3 *125:6 *125:21 10.14 
4 *125:21 *125:27 5.564 
5 *125:27 *833:A1 9.532 
6 *125:27 *837:A1 13.408 
7 *125:21 *839:A1 4.5 
*END

*D_NET *126 0.0114268
*CONN
*I *775:A1 I *D gf180mcu_fd_sc_mcu7t5v0__nor4_4
*I *772:A1 I *D gf180mcu_fd_sc_mcu7t5v0__nor3_2
*I *793:A1 I *D gf180mcu_fd_sc_mcu7t5v0__nand4_1
*I *839:A2 I *D gf180mcu_fd_sc_mcu7t5v0__oai31_1
*I *792:A1 I *D gf180mcu_fd_sc_mcu7t5v0__nand3_1
*I *746:ZN O *D gf180mcu_fd_sc_mcu7t5v0__clkinv_1
*CAP
1 *775:A1 7.65413e-05
2 *772:A1 0
3 *793:A1 2.11374e-05
4 *839:A2 0.000853547
5 *792:A1 4.12889e-05
6 *746:ZN 0.000260637
7 *126:41 0.000945743
8 *126:28 0.000607779
9 *126:20 0.000946686
10 *126:10 0.000788433
11 *793:A1 *132:93 1.91917e-06
12 *839:A2 *796:A1 0.000669963
13 *839:A2 *868:RN 0.00053374
14 *839:A2 *132:93 3.36956e-05
15 *126:10 *152:14 1.72912e-05
16 *126:20 *773:A3 2.6126e-05
17 *126:20 *775:A2 0.000543595
18 *126:28 *773:A3 0.00019636
19 *126:28 *793:A2 3.87924e-05
20 *126:28 *141:10 4.98138e-05
21 *126:28 *141:19 7.83779e-05
22 *126:28 *142:16 0.000424397
23 *126:28 *189:10 0.00031512
24 *126:28 *212:12 1.15275e-05
25 *126:28 *212:19 5.76373e-06
26 *777:A2 *126:10 0.000163097
27 *793:A4 *792:A1 0.000213194
28 *794:A2 *792:A1 2.47642e-05
29 *794:A2 *126:41 0.000142185
30 *802:A2 *126:10 4.69366e-05
31 *802:A2 *126:20 2.976e-05
32 *805:A2 *126:20 1.20889e-05
33 *829:A2 *126:28 0
34 *829:B *126:28 0.000159117
35 *842:A2 *839:A2 0.000773041
36 *844:A2 *792:A1 5.93437e-05
37 *844:A2 *839:A2 0.000160711
38 *844:A2 *126:41 5.98764e-05
39 *870:D *126:20 0.000538805
40 *871:D *126:10 5.48978e-05
41 *66:14 *126:20 0.000162321
42 *66:14 *126:28 8.81341e-06
43 *66:32 *126:28 0.000304448
44 *112:18 *793:A1 5.94067e-05
45 *112:18 *839:A2 0.000431535
46 *112:18 *126:28 9.244e-05
47 *113:26 *126:28 0.000441693
*RES
1 *746:ZN *126:10 6.704 
2 *126:10 *126:20 13.94 
3 *126:20 *126:28 10.808 
4 *126:28 *792:A1 9.684 
5 *126:28 *126:41 5.336 
6 *126:41 *839:A2 32.304 
7 *126:41 *793:A1 4.728 
8 *126:20 *772:A1 4.5 
9 *126:10 *775:A1 5.032 
*END

*D_NET *127 0.00304387
*CONN
*I *773:A3 I *D gf180mcu_fd_sc_mcu7t5v0__nand4_1
*I *798:A2 I *D gf180mcu_fd_sc_mcu7t5v0__nor4_4
*I *747:ZN O *D gf180mcu_fd_sc_mcu7t5v0__clkinv_1
*CAP
1 *773:A3 0.000370389
2 *798:A2 2.23286e-05
3 *747:ZN 0
4 *127:4 0.000392717
5 *773:A3 *767:A1 0
6 *773:A3 *786:A3 0.000206333
7 *773:A3 *152:37 0.000669887
8 *773:A3 *189:10 7.59985e-05
9 *773:A3 *212:19 0.000822659
10 *829:B *798:A2 0.000134113
11 *113:26 *798:A2 0.000126956
12 *126:20 *773:A3 2.6126e-05
13 *126:28 *773:A3 0.00019636
*RES
1 *747:ZN *127:4 4.5 
2 *127:4 *798:A2 14.184 
3 *127:4 *773:A3 17.908 
*END

*D_NET *128 0.00174896
*CONN
*I *819:A2 I *D gf180mcu_fd_sc_mcu7t5v0__xor2_1
*I *820:A1 I *D gf180mcu_fd_sc_mcu7t5v0__oai22_1
*I *748:ZN O *D gf180mcu_fd_sc_mcu7t5v0__clkinv_1
*CAP
1 *819:A2 0.000129701
2 *820:A1 0.000336959
3 *748:ZN 0
4 *128:6 0.000466661
5 *819:A2 *748:I 0.000491
6 *820:B2 *820:A1 0
7 *877:D *820:A1 0.00032464
*RES
1 *748:ZN *128:6 9 
2 *128:6 *820:A1 11.28 
3 *128:6 *819:A2 10.444 
*END

*D_NET *129 0.00229029
*CONN
*I *826:B2 I *D gf180mcu_fd_sc_mcu7t5v0__aoi22_1
*I *749:ZN O *D gf180mcu_fd_sc_mcu7t5v0__clkinv_1
*CAP
1 *826:B2 0.00028253
2 *749:ZN 0.00028253
3 *820:A2 *826:B2 0.00055136
4 *878:D *826:B2 0.00117387
*RES
1 *749:ZN *826:B2 21.952 
*END

*D_NET *130 0.00152746
*CONN
*I *833:A2 I *D gf180mcu_fd_sc_mcu7t5v0__oai32_1
*I *750:ZN O *D gf180mcu_fd_sc_mcu7t5v0__clkinv_1
*CAP
1 *833:A2 0.00034563
2 *750:ZN 0.00034563
3 *833:A2 *838:A1 0.000404151
4 *833:A2 *135:22 0.000273671
5 *838:A3 *833:A2 0
6 *839:B *833:A2 1.72572e-05
7 *842:B *833:A2 4.94368e-05
8 *853:D *833:A2 8.08531e-05
9 *856:D *833:A2 1.08266e-05
*RES
1 *750:ZN *833:A2 12.116 
*END

*D_NET *131 0.00138687
*CONN
*I *840:B2 I *D gf180mcu_fd_sc_mcu7t5v0__oai22_1
*I *751:ZN O *D gf180mcu_fd_sc_mcu7t5v0__clkinv_1
*CAP
1 *840:B2 0.000245941
2 *751:ZN 0.000245941
3 *66:81 *840:B2 0.000421491
4 *66:96 *840:B2 0.000473493
*RES
1 *751:ZN *840:B2 20.356 
*END

*D_NET *132 0.0139116
*CONN
*I *901:I I *D gf180mcu_fd_sc_mcu7t5v0__clkbuf_16
*I *895:I I *D gf180mcu_fd_sc_mcu7t5v0__clkbuf_16
*I *902:I I *D gf180mcu_fd_sc_mcu7t5v0__clkbuf_16
*I *898:I I *D gf180mcu_fd_sc_mcu7t5v0__clkbuf_16
*I *897:I I *D gf180mcu_fd_sc_mcu7t5v0__clkbuf_16
*I *900:I I *D gf180mcu_fd_sc_mcu7t5v0__clkbuf_16
*I *899:I I *D gf180mcu_fd_sc_mcu7t5v0__clkbuf_16
*I *896:I I *D gf180mcu_fd_sc_mcu7t5v0__clkbuf_16
*I *894:Z O *D gf180mcu_fd_sc_mcu7t5v0__clkbuf_16
*CAP
1 *901:I 6.81113e-05
2 *895:I 0.000133937
3 *902:I 9.52714e-05
4 *898:I 0
5 *897:I 0.000166356
6 *900:I 0.00014948
7 *899:I 0
8 *896:I 4.70588e-05
9 *894:Z 0.000238157
10 *132:160 0.000289684
11 *132:155 0.000316844
12 *132:123 0.000281694
13 *132:114 0.000332764
14 *132:93 0.00048432
15 *132:84 0.000518358
16 *132:82 0.000139044
17 *132:78 0.000616247
18 *132:69 0.00059528
19 *132:53 0.000499989
20 *132:48 0.000549527
21 *132:37 0.000248181
22 *132:33 0.000922659
23 *132:17 0.000352639
24 *132:13 0.00120896
25 *132:8 0.000267485
26 *895:I *868:RN 0.0003619
27 *895:I *141:10 2.20014e-05
28 *895:I *180:10 8.01306e-06
29 *896:I *766:A1 0.000101243
30 *897:I *868:RN 0.000118712
31 *901:I *211:26 1.42815e-05
32 *132:8 *767:A1 7.47441e-05
33 *132:8 *187:16 5.59256e-05
34 *132:17 *766:A1 0.000360216
35 *132:17 *134:12 0
36 *132:17 *134:21 5.12492e-06
37 *132:17 *187:16 0
38 *132:33 *767:A1 0
39 *132:33 *875:CLK 0.000634598
40 *132:33 *134:21 1.95421e-06
41 *132:33 *187:16 1.3758e-05
42 *132:53 *874:CLK 2.9965e-05
43 *132:53 *140:16 3.10417e-05
44 *132:53 *176:42 3.60188e-05
45 *132:69 *152:22 4.39718e-05
46 *132:78 *798:A1 8.89016e-05
47 *132:78 *870:CLK 0.000169363
48 *132:78 *144:8 0
49 *132:78 *152:22 1.32442e-05
50 *132:78 *212:12 2.79387e-05
51 *132:78 *212:19 2.49779e-05
52 *132:93 *795:A1 3.65371e-05
53 *132:93 *868:RN 0.000248642
54 *132:114 *140:16 3.86444e-05
55 *132:123 *763:A1 0.000190808
56 *132:123 *764:A2 1.91917e-06
57 *132:123 *140:16 0.000101669
58 *132:123 *211:26 0
59 *132:155 *211:26 4.32699e-05
60 *132:160 *211:26 6.79484e-05
61 *773:A4 *896:I 1.63764e-05
62 *773:A4 *132:17 1.4922e-05
63 *783:A2 *901:I 0.000121492
64 *783:A2 *132:160 0.000468021
65 *793:A1 *132:93 1.91917e-06
66 *795:A2 *132:93 0.00020136
67 *799:A2 *132:78 8.80676e-05
68 *799:A2 *132:82 7.58094e-05
69 *799:A2 *132:84 9.88736e-06
70 *813:A2 *132:33 0.000164686
71 *815:A2 *132:123 0
72 *829:A1 *132:84 4.91241e-05
73 *829:A1 *132:93 3.36218e-05
74 *829:B *132:78 0
75 *839:A2 *132:93 3.36956e-05
76 *875:D *901:I 1.29762e-05
77 *875:D *132:33 0
78 *875:D *132:37 0
79 *875:D *132:48 0
80 *875:D *132:160 0.00026029
81 *885:D *132:114 0.000116298
82 *885:D *132:123 2.90805e-05
83 *3:22 *132:33 0
84 *3:22 *132:37 0
85 *3:22 *132:48 0
86 *3:22 *132:53 0
87 *79:10 *897:I 0.000118712
88 *79:10 *132:93 3.42926e-05
89 *88:8 *132:93 2.40654e-06
90 *112:18 *895:I 0.00010242
91 *112:18 *132:93 0
92 *113:26 *132:69 8.74156e-05
93 *113:26 *132:78 0.000379306
*RES
1 *894:Z *132:8 5.716 
2 *132:8 *132:13 0.38 
3 *132:13 *132:17 2.57043 
4 *132:17 *896:I 5.04557 
5 *132:13 *132:33 6.66357 
6 *132:33 *132:37 0.632429 
7 *132:37 *899:I 4.5 
8 *132:37 *132:48 0.988 
9 *132:48 *132:53 2.66 
10 *132:53 *900:I 5.184 
11 *894:Z *132:69 5.10529 
12 *132:69 *132:78 4.68486 
13 *132:78 *132:82 0.561857 
14 *132:82 *132:84 0.567286 
15 *132:84 *132:93 3.70771 
16 *132:93 *897:I 5.165 
17 *132:82 *898:I 4.5 
18 *900:I *132:114 5.184 
19 *132:114 *132:123 6.932 
20 *132:123 *902:I 9 
21 *897:I *895:I 10.596 
22 *902:I *132:155 5.184 
23 *132:155 *132:160 3.116 
24 *132:160 *901:I 5.184 
*END

*D_NET *133 0.00733252
*CONN
*I *879:CLK I *D gf180mcu_fd_sc_mcu7t5v0__dffrnq_1
*I *869:CLK I *D gf180mcu_fd_sc_mcu7t5v0__dffrnq_1
*I *876:CLK I *D gf180mcu_fd_sc_mcu7t5v0__dffrnq_1
*I *857:CLK I *D gf180mcu_fd_sc_mcu7t5v0__dffrnq_1
*I *878:CLK I *D gf180mcu_fd_sc_mcu7t5v0__dffrnq_1
*I *877:CLK I *D gf180mcu_fd_sc_mcu7t5v0__dffrnq_1
*I *895:Z O *D gf180mcu_fd_sc_mcu7t5v0__clkbuf_16
*CAP
1 *879:CLK 0.000412107
2 *869:CLK 0.000578437
3 *876:CLK 0.000245816
4 *857:CLK 0
5 *878:CLK 0.000624512
6 *877:CLK 0.000166142
7 *895:Z 0.00110351
8 *133:31 0.000389802
9 *133:10 0.00075963
10 *869:CLK *172:22 0
11 *869:CLK *181:32 0.000332214
12 *876:CLK *153:29 0
13 *769:A3 *869:CLK 1.06223e-05
14 *780:A2 *869:CLK 0.000151957
15 *820:A2 *878:CLK 0
16 *820:B1 *133:10 0.000211541
17 *820:B2 *133:10 0.000342519
18 *840:A1 *133:31 2.01099e-05
19 *840:A2 *133:31 7.53241e-05
20 *840:B1 *133:31 1.72912e-05
21 *857:D *876:CLK 5.6917e-05
22 *857:D *133:31 0.000109422
23 *876:D *876:CLK 5.76636e-05
24 *876:D *133:31 0.000357004
25 *877:D *877:CLK 2.333e-05
26 *878:D *878:CLK 7.24161e-06
27 *878:D *879:CLK 0
28 *879:D *879:CLK 6.77492e-05
29 *104:14 *133:10 3.19219e-05
30 *113:26 *869:CLK 0.00117974
*RES
1 *895:Z *133:10 16.92 
2 *133:10 *877:CLK 5.488 
3 *133:10 *878:CLK 5.792 
4 *895:Z *133:31 6.552 
5 *133:31 *857:CLK 4.5 
6 *133:31 *876:CLK 6.172 
7 *895:Z *869:CLK 23.624 
8 *878:CLK *879:CLK 11.736 
*END

*D_NET *134 0.0108943
*CONN
*I *870:CLK I *D gf180mcu_fd_sc_mcu7t5v0__dffrnq_1
*I *875:CLK I *D gf180mcu_fd_sc_mcu7t5v0__dffrnq_1
*I *872:CLK I *D gf180mcu_fd_sc_mcu7t5v0__dffrnq_1
*I *867:CLK I *D gf180mcu_fd_sc_mcu7t5v0__dffrnq_1
*I *866:CLK I *D gf180mcu_fd_sc_mcu7t5v0__dffrnq_1
*I *903:I I *D gf180mcu_fd_sc_mcu7t5v0__clkbuf_2
*I *896:Z O *D gf180mcu_fd_sc_mcu7t5v0__clkbuf_16
*CAP
1 *870:CLK 9.07945e-05
2 *875:CLK 0.000694819
3 *872:CLK 0.000109973
4 *867:CLK 0.000293154
5 *866:CLK 0.000344945
6 *903:I 0
7 *896:Z 0.00038945
8 *134:29 0.000927158
9 *134:25 0.000755002
10 *134:21 0.0012205
11 *134:12 0.00046837
12 *866:CLK *786:A3 0.000732431
13 *866:CLK *182:22 2.23385e-05
14 *866:CLK *182:30 0
15 *870:CLK *798:A1 0.000169363
16 *872:CLK *182:22 0.000502843
17 *875:CLK *767:A1 2.30587e-05
18 *875:CLK *773:A2 0
19 *875:CLK *872:RN 0.000363988
20 *875:CLK *145:17 0
21 *875:CLK *187:16 0.000333388
22 *875:CLK *197:23 0.000256521
23 *875:CLK *217:21 4.0649e-05
24 *134:12 *767:A1 0
25 *134:12 *786:A3 0.000235417
26 *134:12 *187:16 0.000221732
27 *134:12 *217:21 0
28 *134:21 *766:A1 0.000137455
29 *134:21 *187:16 2.22657e-05
30 *134:21 *217:8 0.000227267
31 *134:25 *790:A2 0.000134022
32 *134:25 *217:21 3.54426e-05
33 *134:29 *182:22 0.000332876
34 *773:A4 *134:12 0.000376901
35 *788:B *866:CLK 0
36 *791:A1 *866:CLK 5.43717e-05
37 *791:A2 *867:CLK 5.40431e-05
38 *866:D *866:CLK 8.22324e-05
39 *867:D *866:CLK 0
40 *867:D *867:CLK 0.000399191
41 *875:D *875:CLK 0
42 *894:I *134:21 3.29176e-06
43 *3:22 *134:21 2.79765e-05
44 *132:17 *134:12 0
45 *132:17 *134:21 5.12492e-06
46 *132:33 *875:CLK 0.000634598
47 *132:33 *134:21 1.95421e-06
48 *132:78 *870:CLK 0.000169363
*RES
1 *896:Z *134:12 16.692 
2 *134:12 *903:I 4.5 
3 *134:12 *134:21 6.248 
4 *134:21 *134:25 6.704 
5 *134:25 *134:29 2.432 
6 *134:29 *866:CLK 7.768 
7 *134:29 *867:CLK 16.16 
8 *134:25 *872:CLK 5.792 
9 *134:21 *875:CLK 16.068 
10 *896:Z *870:CLK 10.216 
*END

*D_NET *135 0.00576699
*CONN
*I *858:CLK I *D gf180mcu_fd_sc_mcu7t5v0__dffrnq_1
*I *855:CLK I *D gf180mcu_fd_sc_mcu7t5v0__dffrnq_1
*I *856:CLK I *D gf180mcu_fd_sc_mcu7t5v0__dffrnq_1
*I *853:CLK I *D gf180mcu_fd_sc_mcu7t5v0__dffrnq_1
*I *854:CLK I *D gf180mcu_fd_sc_mcu7t5v0__dffrnq_1
*I *904:I I *D gf180mcu_fd_sc_mcu7t5v0__clkbuf_2
*I *897:Z O *D gf180mcu_fd_sc_mcu7t5v0__clkbuf_16
*CAP
1 *858:CLK 0
2 *855:CLK 0
3 *856:CLK 0
4 *853:CLK 9.53509e-05
5 *854:CLK 0.000216077
6 *904:I 0.000100017
7 *897:Z 0.000195357
8 *135:24 0.000311428
9 *135:22 0.000221063
10 *135:20 0.000311767
11 *135:18 0.000186044
12 *853:CLK *838:A1 0.000424397
13 *853:CLK *842:A1 7.90644e-05
14 *854:CLK *842:A1 0.000177337
15 *854:CLK *172:14 5.25777e-05
16 *854:CLK *184:8 0
17 *135:18 *838:A1 6.73834e-05
18 *135:18 *868:CLK 0.000154348
19 *135:20 *838:A1 0.000374073
20 *135:20 *868:CLK 5.75052e-05
21 *135:22 *838:A1 0.000301956
22 *833:A1 *135:22 3.76749e-05
23 *833:A2 *135:22 0.000273671
24 *836:A2 *853:CLK 0.000303419
25 *836:A2 *854:CLK 0.000850467
26 *856:D *853:CLK 2.6126e-05
27 *856:D *135:22 1.23589e-05
28 *868:D *904:I 5.3266e-05
29 *70:20 *135:20 0.00068558
30 *70:20 *135:22 0.000198685
*RES
1 *897:Z *904:I 9.684 
2 *897:Z *135:18 5.488 
3 *135:18 *135:20 2.204 
4 *135:20 *135:22 2.204 
5 *135:22 *135:24 4.5 
6 *135:24 *854:CLK 11.812 
7 *135:24 *853:CLK 10.672 
8 *135:22 *856:CLK 4.5 
9 *135:20 *855:CLK 4.5 
10 *135:18 *858:CLK 4.5 
*END

*D_NET *136 0.00844212
*CONN
*I *861:CLK I *D gf180mcu_fd_sc_mcu7t5v0__dffrnq_1
*I *871:CLK I *D gf180mcu_fd_sc_mcu7t5v0__dffrnq_1
*I *905:I I *D gf180mcu_fd_sc_mcu7t5v0__clkbuf_2
*I *860:CLK I *D gf180mcu_fd_sc_mcu7t5v0__dffrnq_1
*I *859:CLK I *D gf180mcu_fd_sc_mcu7t5v0__dffrnq_1
*I *868:CLK I *D gf180mcu_fd_sc_mcu7t5v0__dffrnq_1
*I *898:Z O *D gf180mcu_fd_sc_mcu7t5v0__clkbuf_16
*CAP
1 *861:CLK 0.000221062
2 *871:CLK 0.000125044
3 *905:I 0
4 *860:CLK 0
5 *859:CLK 0
6 *868:CLK 0.00035305
7 *898:Z 0
8 *136:37 0.000229689
9 *136:33 0.000407785
10 *136:26 0.000151584
11 *136:8 0.000667468
12 *136:4 0.000383923
13 *861:CLK *870:RN 0.000626404
14 *861:CLK *913:I 0.000116627
15 *868:CLK *771:A1 0.000209085
16 *868:CLK *796:A1 4.50449e-05
17 *871:CLK *851:A2 0.000422006
18 *871:CLK *171:12 0.000422006
19 *136:8 *796:A1 3.46661e-05
20 *136:8 *806:A1 0.000784692
21 *136:26 *806:A1 0.000410165
22 *136:26 *913:I 2.74753e-05
23 *136:33 *913:I 0.000194624
24 *805:A2 *861:CLK 0.000291432
25 *846:A2 *871:CLK 0.000523943
26 *846:A2 *136:37 0.000523959
27 *859:D *136:8 4.26884e-05
28 *860:D *871:CLK 0
29 *860:D *136:37 0
30 *868:D *868:CLK 0.000214838
31 *70:20 *868:CLK 0.000307974
32 *98:12 *861:CLK 0.000149398
33 *98:12 *136:8 0.000142175
34 *98:12 *136:26 0.000111199
35 *98:12 *136:33 9.026e-05
36 *135:18 *868:CLK 0.000154348
37 *135:20 *868:CLK 5.75052e-05
*RES
1 *898:Z *136:4 4.5 
2 *136:4 *136:8 3.344 
3 *136:8 *868:CLK 8.224 
4 *136:8 *859:CLK 4.5 
5 *136:4 *136:26 1.292 
6 *136:26 *860:CLK 4.5 
7 *136:26 *136:33 1.14 
8 *136:33 *136:37 5.792 
9 *136:37 *905:I 9 
10 *136:37 *871:CLK 11.432 
11 *136:33 *861:CLK 7.768 
*END

*D_NET *137 0.00549397
*CONN
*I *889:CLK I *D gf180mcu_fd_sc_mcu7t5v0__dffrnq_1
*I *873:CLK I *D gf180mcu_fd_sc_mcu7t5v0__dffrnq_1
*I *906:I I *D gf180mcu_fd_sc_mcu7t5v0__clkbuf_2
*I *888:CLK I *D gf180mcu_fd_sc_mcu7t5v0__dffrnq_1
*I *886:CLK I *D gf180mcu_fd_sc_mcu7t5v0__dffrnq_1
*I *887:CLK I *D gf180mcu_fd_sc_mcu7t5v0__dffrnq_1
*I *899:Z O *D gf180mcu_fd_sc_mcu7t5v0__clkbuf_16
*CAP
1 *889:CLK 0
2 *873:CLK 0.000526325
3 *906:I 0.000164377
4 *888:CLK 0
5 *886:CLK 0.00036143
6 *887:CLK 0.00015949
7 *899:Z 0.000457039
8 *137:53 0.000776817
9 *137:18 0.000732026
10 *137:14 0.00045941
11 *137:10 0.000619228
12 *873:CLK *197:10 0
13 *906:I *177:47 2.6126e-05
14 *906:I *177:66 6.25174e-05
15 *137:10 *759:A2 2.17428e-05
16 *137:10 *177:66 0.000159859
17 *137:14 *758:A1 0
18 *137:14 *758:A2 0
19 *137:53 *759:A1 0.000138695
20 *886:D *886:CLK 2.57058e-06
21 *887:D *886:CLK 6.13012e-05
22 *887:D *887:CLK 9.026e-05
23 *887:D *137:18 6.71936e-05
24 *888:D *137:10 0.000464623
25 *889:D *873:CLK 7.24161e-06
26 *889:D *137:53 0.000135698
*RES
1 *899:Z *137:10 7.008 
2 *137:10 *137:14 5.792 
3 *137:14 *137:18 6.096 
4 *137:18 *887:CLK 5.64 
5 *137:18 *886:CLK 6.704 
6 *137:14 *888:CLK 9 
7 *137:10 *906:I 5.64 
8 *899:Z *137:53 6.552 
9 *137:53 *873:CLK 16.996 
10 *137:53 *889:CLK 4.5 
*END

*D_NET *138 0.0061405
*CONN
*I *880:CLK I *D gf180mcu_fd_sc_mcu7t5v0__dffrnq_1
*I *891:CLK I *D gf180mcu_fd_sc_mcu7t5v0__dffrnq_1
*I *890:CLK I *D gf180mcu_fd_sc_mcu7t5v0__dffrnq_1
*I *892:CLK I *D gf180mcu_fd_sc_mcu7t5v0__dffrnq_1
*I *893:CLK I *D gf180mcu_fd_sc_mcu7t5v0__dffrnq_1
*I *907:I I *D gf180mcu_fd_sc_mcu7t5v0__clkbuf_2
*I *900:Z O *D gf180mcu_fd_sc_mcu7t5v0__clkbuf_16
*CAP
1 *880:CLK 0.000363053
2 *891:CLK 0
3 *890:CLK 0.0001681
4 *892:CLK 3.28034e-05
5 *893:CLK 0.000143933
6 *907:I 0.000547018
7 *900:Z 0.000351835
8 *138:43 0.000695851
9 *138:41 0.000890804
10 *138:32 0.000371918
11 *880:CLK *916:I 0
12 *880:CLK *176:14 1.34641e-06
13 *880:CLK *176:38 5.24096e-05
14 *880:CLK *182:22 0.000431543
15 *880:CLK *196:10 0.000141897
16 *890:CLK *754:A1 2.57058e-06
17 *890:CLK *754:A2 9.27253e-05
18 *893:CLK *176:38 0.000214408
19 *893:CLK *176:42 0.000149579
20 *907:I *758:A2 2.40935e-05
21 *907:I *938:I 0
22 *907:I *182:22 0
23 *138:32 *891:RN 0
24 *138:32 *960:I 0
25 *138:43 *754:A2 0.000321346
26 *138:43 *917:I 7.91972e-05
27 *138:43 *176:14 8.64878e-05
28 *880:D *880:CLK 0
29 *880:D *893:CLK 9.32131e-05
30 *890:D *890:CLK 0.000191702
31 *891:D *890:CLK 0.000333388
32 *891:D *138:43 0.000215472
33 *892:D *138:32 1.91917e-06
34 *3:22 *893:CLK 0.000141888
*RES
1 *900:Z *907:I 10.216 
2 *900:Z *893:CLK 11.052 
3 *907:I *138:32 6.4 
4 *138:32 *892:CLK 4.728 
5 *138:32 *138:41 4.5 
6 *138:41 *138:43 5.244 
7 *138:43 *890:CLK 10.976 
8 *138:43 *891:CLK 9 
9 *138:41 *880:CLK 11.888 
*END

*D_NET *139 0.0055061
*CONN
*I *863:CLK I *D gf180mcu_fd_sc_mcu7t5v0__dffrnq_1
*I *862:CLK I *D gf180mcu_fd_sc_mcu7t5v0__dffrnq_1
*I *883:CLK I *D gf180mcu_fd_sc_mcu7t5v0__dffrnq_1
*I *865:CLK I *D gf180mcu_fd_sc_mcu7t5v0__dffrnq_1
*I *864:CLK I *D gf180mcu_fd_sc_mcu7t5v0__dffrnq_1
*I *908:I I *D gf180mcu_fd_sc_mcu7t5v0__clkbuf_2
*I *901:Z O *D gf180mcu_fd_sc_mcu7t5v0__clkbuf_16
*CAP
1 *863:CLK 0
2 *862:CLK 0.000332714
3 *883:CLK 0.000570344
4 *865:CLK 0
5 *864:CLK 0
6 *908:I 7.65413e-05
7 *901:Z 0.000129206
8 *139:41 0.000398717
9 *139:20 0.000741199
10 *139:6 0.000310601
11 *862:CLK *782:A1 5.76373e-06
12 *862:CLK *174:86 0.000104743
13 *862:CLK *174:90 9.4764e-05
14 *883:CLK *885:RN 2.64851e-05
15 *883:CLK *140:50 6.44328e-05
16 *139:6 *782:A1 3.08902e-05
17 *139:6 *785:A1 0.000348384
18 *139:20 *785:A1 0.000431543
19 *139:41 *782:A1 0.000230481
20 *139:41 *174:90 0.000107858
21 *785:A2 *139:20 0.000248576
22 *864:D *139:6 7.57767e-05
23 *865:D *883:CLK 1.5015e-05
24 *865:D *139:20 2.74753e-05
25 *882:D *883:CLK 0.000816353
26 *882:D *139:20 0.000307983
27 *883:D *883:CLK 1.02578e-05
*RES
1 *901:Z *139:6 5.488 
2 *139:6 *908:I 5.032 
3 *139:6 *864:CLK 4.5 
4 *139:6 *139:20 2.204 
5 *139:20 *865:CLK 4.5 
6 *139:20 *883:CLK 9.06 
7 *901:Z *139:41 5.488 
8 *139:41 *862:CLK 6.932 
9 *139:41 *863:CLK 4.5 
*END

*D_NET *140 0.00687768
*CONN
*I *881:CLK I *D gf180mcu_fd_sc_mcu7t5v0__dffrnq_1
*I *884:CLK I *D gf180mcu_fd_sc_mcu7t5v0__dffrnq_1
*I *882:CLK I *D gf180mcu_fd_sc_mcu7t5v0__dffrnq_1
*I *909:I I *D gf180mcu_fd_sc_mcu7t5v0__clkbuf_2
*I *885:CLK I *D gf180mcu_fd_sc_mcu7t5v0__dffrnq_1
*I *874:CLK I *D gf180mcu_fd_sc_mcu7t5v0__dffrnq_1
*I *902:Z O *D gf180mcu_fd_sc_mcu7t5v0__clkbuf_16
*CAP
1 *881:CLK 0
2 *884:CLK 5.70245e-05
3 *882:CLK 0
4 *909:I 0
5 *885:CLK 0
6 *874:CLK 0.00021791
7 *902:Z 2.67896e-05
8 *140:50 0.000217793
9 *140:39 0.000193836
10 *140:16 0.000820282
11 *140:10 0.000703389
12 *140:6 0.000160873
13 *874:CLK *815:A1 0
14 *884:CLK *935:I 0
15 *884:CLK *959:I 0
16 *884:CLK *195:10 4.78829e-05
17 *140:6 *763:A2 0.000202968
18 *140:6 *885:RN 0.000255714
19 *140:10 *763:A1 0.000246374
20 *140:10 *959:I 0.000864184
21 *140:10 *203:42 0.000285856
22 *140:16 *756:A2 0
23 *140:16 *763:A1 0.00020764
24 *140:16 *764:A2 0
25 *140:16 *203:42 0.00132233
26 *140:39 *885:RN 0.000111659
27 *140:50 *885:RN 0.000410165
28 *140:50 *959:I 0
29 *140:50 *195:10 0.000149325
30 *882:D *140:6 6.5436e-06
31 *882:D *140:39 2.11524e-05
32 *882:D *140:50 7.24161e-06
33 *883:CLK *140:50 6.44328e-05
34 *885:D *874:CLK 7.24161e-06
35 *885:D *140:16 6.77492e-05
36 *893:D *140:16 0
37 *132:53 *874:CLK 2.9965e-05
38 *132:53 *140:16 3.10417e-05
39 *132:114 *140:16 3.86444e-05
40 *132:123 *140:16 0.000101669
*RES
1 *902:Z *140:6 5.184 
2 *140:6 *140:10 7.312 
3 *140:10 *140:16 10.732 
4 *140:16 *874:CLK 5.868 
5 *140:16 *885:CLK 4.5 
6 *140:10 *909:I 9 
7 *140:6 *140:39 0.38 
8 *140:39 *882:CLK 4.5 
9 *140:39 *140:50 6.476 
10 *140:50 *884:CLK 9.532 
11 *140:50 *881:CLK 9 
*END

*D_NET *141 0.00693091
*CONN
*I *794:A1 I *D gf180mcu_fd_sc_mcu7t5v0__xnor2_1
*I *795:A1 I *D gf180mcu_fd_sc_mcu7t5v0__xor2_1
*I *797:A1 I *D gf180mcu_fd_sc_mcu7t5v0__nand2_1
*I *793:A3 I *D gf180mcu_fd_sc_mcu7t5v0__nand4_1
*I *868:Q O *D gf180mcu_fd_sc_mcu7t5v0__dffrnq_1
*CAP
1 *794:A1 0
2 *795:A1 0.000307226
3 *797:A1 0.000262698
4 *793:A3 0
5 *868:Q 0.000433854
6 *141:36 0.000567233
7 *141:19 0.000537919
8 *141:10 0.000449068
9 *797:A1 *787:A2 6.31406e-05
10 *797:A1 *792:A2 4.33784e-05
11 *797:A1 *793:A2 0.00012655
12 *797:A1 *212:43 5.84133e-05
13 *141:10 *793:A2 2.6126e-05
14 *141:10 *868:RN 4.53938e-05
15 *141:10 *927:I 9.27168e-05
16 *141:10 *175:8 0.000142194
17 *141:10 *180:10 0.000368902
18 *141:19 *793:A2 1.97747e-05
19 *141:36 *793:A2 4.06416e-05
20 *793:A4 *797:A1 0.00015495
21 *794:A2 *797:A1 0.000260709
22 *794:A2 *141:36 0.000541992
23 *795:A2 *795:A1 0.000766415
24 *795:A2 *141:36 5.4634e-05
25 *798:A4 *141:36 0
26 *799:A2 *141:36 2.29777e-05
27 *800:A2 *141:36 1.13356e-05
28 *844:A2 *141:36 0
29 *895:I *141:10 2.20014e-05
30 *65:14 *797:A1 8.45159e-05
31 *65:40 *797:A1 9.52854e-05
32 *112:18 *141:10 0.000925993
33 *113:26 *141:10 0.000240138
34 *126:28 *141:10 4.98138e-05
35 *126:28 *141:19 7.83779e-05
36 *132:93 *795:A1 3.65371e-05
*RES
1 *868:Q *141:10 10.048 
2 *141:10 *793:A3 4.5 
3 *141:10 *141:19 4.728 
4 *141:19 *797:A1 11.888 
5 *141:19 *141:36 6.932 
6 *141:36 *795:A1 7.464 
7 *141:36 *794:A1 4.5 
*END

*D_NET *142 0.00616319
*CONN
*I *799:A1 I *D gf180mcu_fd_sc_mcu7t5v0__xnor2_1
*I *800:A1 I *D gf180mcu_fd_sc_mcu7t5v0__xor2_1
*I *797:A2 I *D gf180mcu_fd_sc_mcu7t5v0__nand2_1
*I *869:Q O *D gf180mcu_fd_sc_mcu7t5v0__dffrnq_1
*CAP
1 *799:A1 0
2 *800:A1 0
3 *797:A2 0.00013149
4 *869:Q 0.000450846
5 *142:16 0.000285076
6 *142:10 0.000604432
7 *797:A2 *787:A2 6.87363e-05
8 *797:A2 *793:A2 8.93281e-05
9 *142:10 *804:A1 2.6126e-05
10 *142:10 *806:A1 0.000589761
11 *142:10 *829:C 0.000374281
12 *142:10 *869:RN 4.71416e-05
13 *142:10 *183:6 1.15312e-05
14 *142:16 *829:C 0.000948059
15 *142:16 *212:12 0.000181264
16 *798:A4 *797:A2 4.71425e-05
17 *798:A4 *142:10 0.000300828
18 *798:A4 *142:16 1.4379e-05
19 *806:A2 *142:10 0.000376439
20 *829:B *142:10 0.000118069
21 *829:B *142:16 0.000130983
22 *66:32 *797:A2 0.000511331
23 *113:26 *142:16 0.000431543
24 *126:28 *142:16 0.000424397
*RES
1 *869:Q *142:10 14.32 
2 *142:10 *142:16 8.3 
3 *142:16 *797:A2 15.096 
4 *142:16 *800:A1 4.5 
5 *142:10 *799:A1 9 
*END

*D_NET *143 0.00606371
*CONN
*I *803:A1 I *D gf180mcu_fd_sc_mcu7t5v0__xor2_1
*I *804:A1 I *D gf180mcu_fd_sc_mcu7t5v0__xnor2_1
*I *802:A1 I *D gf180mcu_fd_sc_mcu7t5v0__nand2_1
*I *870:Q O *D gf180mcu_fd_sc_mcu7t5v0__dffrnq_1
*CAP
1 *803:A1 0
2 *804:A1 0.000284801
3 *802:A1 3.36824e-05
4 *870:Q 0.000437029
5 *143:25 0.000511715
6 *143:10 0.000697625
7 *804:A1 *144:8 0
8 *143:10 *847:A1 5.73322e-07
9 *798:A3 *804:A1 0.000281221
10 *798:A4 *804:A1 0.0002221
11 *802:A2 *802:A1 8.69929e-05
12 *802:A2 *804:A1 7.24161e-06
13 *802:A2 *143:25 2.89664e-05
14 *804:A2 *804:A1 0.000509981
15 *806:A2 *802:A1 0.000268267
16 *806:A2 *804:A1 0.00034799
17 *806:A2 *143:10 0.000202899
18 *806:A2 *143:25 0.000180901
19 *807:A2 *802:A1 5.26706e-05
20 *807:A2 *143:10 0.000217082
21 *850:B *143:10 0
22 *861:D *143:10 8.22324e-05
23 *871:D *802:A1 0.000389591
24 *871:D *143:10 0.0010393
25 *92:6 *804:A1 0.000101813
26 *98:12 *143:10 5.29053e-05
27 *142:10 *804:A1 2.6126e-05
*RES
1 *870:Q *143:10 13.864 
2 *143:10 *802:A1 10.216 
3 *143:10 *143:25 6.248 
4 *143:25 *804:A1 8.832 
5 *143:25 *803:A1 4.5 
*END

*D_NET *144 0.00638126
*CONN
*I *806:A1 I *D gf180mcu_fd_sc_mcu7t5v0__xor2_1
*I *829:C I *D gf180mcu_fd_sc_mcu7t5v0__oai211_1
*I *871:Q O *D gf180mcu_fd_sc_mcu7t5v0__dffrnq_1
*CAP
1 *806:A1 0.00028848
2 *829:C 9.96618e-05
3 *871:Q 0.000341656
4 *144:8 0.000729798
5 *806:A1 *913:I 0.000848846
6 *144:8 *798:A1 0
7 *798:A4 *806:A1 0.000147916
8 *798:A4 *829:C 0.000224706
9 *804:A1 *144:8 0
10 *804:A2 *144:8 0
11 *806:A2 *806:A1 9.4764e-05
12 *829:A1 *829:C 0.000378609
13 *829:B *144:8 0.000119866
14 *846:A2 *806:A1 0
15 *132:78 *144:8 0
16 *136:8 *806:A1 0.000784692
17 *136:26 *806:A1 0.000410165
18 *142:10 *806:A1 0.000589761
19 *142:10 *829:C 0.000374281
20 *142:16 *829:C 0.000948059
*RES
1 *871:Q *144:8 11.052 
2 *144:8 *829:C 12.268 
3 *144:8 *806:A1 14.32 
*END

*D_NET *145 0.00428655
*CONN
*I *809:A1 I *D gf180mcu_fd_sc_mcu7t5v0__xnor2_1
*I *808:A1 I *D gf180mcu_fd_sc_mcu7t5v0__xor2_1
*I *774:A2 I *D gf180mcu_fd_sc_mcu7t5v0__nand2_1
*I *773:A2 I *D gf180mcu_fd_sc_mcu7t5v0__nand4_1
*I *872:Q O *D gf180mcu_fd_sc_mcu7t5v0__dffrnq_1
*CAP
1 *809:A1 0.000127464
2 *808:A1 0
3 *774:A2 0.000229794
4 *773:A2 0.000225032
5 *872:Q 0
6 *145:32 0.000263533
7 *145:17 0.000388843
8 *145:4 0.000248012
9 *773:A2 *767:A1 3.27055e-05
10 *773:A2 *773:A1 4.14866e-05
11 *773:A2 *187:16 0.000172914
12 *774:A2 *872:RN 0.000201948
13 *774:A2 *175:29 0
14 *774:A2 *211:26 0
15 *809:A1 *811:A1 7.83779e-05
16 *809:A1 *175:63 0.000305296
17 *145:17 *872:RN 0
18 *775:A4 *774:A2 5.05131e-05
19 *775:A4 *809:A1 0.000310356
20 *775:A4 *145:32 4.49487e-05
21 *808:A2 *809:A1 4.58601e-06
22 *809:A2 *809:A1 0.000241884
23 *812:A2 *774:A2 0
24 *812:A2 *809:A1 1.76797e-05
25 *875:CLK *773:A2 0
26 *875:CLK *145:17 0
27 *66:12 *774:A2 1.10798e-05
28 *66:12 *145:32 4.41345e-05
29 *72:8 *773:A2 0.00101666
30 *72:8 *774:A2 2.49912e-05
31 *72:8 *809:A1 5.70051e-05
32 *72:8 *145:17 0.000147305
*RES
1 *872:Q *145:4 4.5 
2 *145:4 *773:A2 7.54 
3 *145:4 *145:17 4.88 
4 *145:17 *774:A2 10.976 
5 *145:17 *145:32 5.336 
6 *145:32 *808:A1 4.5 
7 *145:32 *809:A1 6.704 
*END

*D_NET *146 0.00183233
*CONN
*I *812:A1 I *D gf180mcu_fd_sc_mcu7t5v0__xor2_1
*I *811:A1 I *D gf180mcu_fd_sc_mcu7t5v0__xnor2_1
*I *774:A1 I *D gf180mcu_fd_sc_mcu7t5v0__nand2_1
*I *873:Q O *D gf180mcu_fd_sc_mcu7t5v0__dffrnq_1
*CAP
1 *812:A1 0.000164842
2 *811:A1 0.000116334
3 *774:A1 4.13961e-05
4 *873:Q 0
5 *146:8 0.000253776
6 *146:4 0.000260888
7 *774:A1 *175:29 0.000222333
8 *811:A1 *175:29 5.57607e-05
9 *811:A1 *175:55 0.000198571
10 *811:A1 *175:63 7.83779e-05
11 *811:A1 *175:85 8.15645e-05
12 *812:A1 *175:63 1.15275e-05
13 *812:A1 *197:23 3.49389e-05
14 *146:8 *872:RN 1.81888e-05
15 *146:8 *197:23 2.57058e-06
16 *809:A1 *811:A1 7.83779e-05
17 *810:A2 *774:A1 0
18 *810:A2 *811:A1 0
19 *812:A2 *812:A1 0.000146053
20 *812:A2 *146:8 6.68265e-05
*RES
1 *873:Q *146:4 4.5 
2 *146:4 *146:8 5.184 
3 *146:8 *774:A1 9.532 
4 *146:8 *811:A1 10.064 
5 *146:4 *812:A1 5.944 
*END

*D_NET *147 0.00447767
*CONN
*I *778:A1 I *D gf180mcu_fd_sc_mcu7t5v0__xnor2_1
*I *777:A1 I *D gf180mcu_fd_sc_mcu7t5v0__xor2_1
*I *776:A1 I *D gf180mcu_fd_sc_mcu7t5v0__nand2_1
*I *874:Q O *D gf180mcu_fd_sc_mcu7t5v0__dffrnq_1
*CAP
1 *778:A1 0
2 *777:A1 0.000129931
3 *776:A1 9.18557e-05
4 *874:Q 0.000231321
5 *147:25 0.000129931
6 *147:12 0.000323177
7 *776:A1 *211:26 2.23385e-05
8 *777:A1 *830:B 6.85351e-05
9 *147:12 *783:A1 0.000415986
10 *147:12 *830:B 0.000226501
11 *147:12 *152:14 0.00113308
12 *776:A2 *776:A1 0.000436933
13 *777:A2 *777:A1 9.26705e-05
14 *783:A2 *776:A1 9.88736e-06
15 *852:A2 *776:A1 0.000716809
16 *852:A2 *147:12 0.000390052
17 *74:18 *777:A1 5.8669e-05
*RES
1 *874:Q *147:12 13.18 
2 *147:12 *776:A1 10.976 
3 *147:12 *147:25 4.5 
4 *147:25 *777:A1 5.64 
5 *147:25 *778:A1 4.5 
*END

*D_NET *148 0.0041769
*CONN
*I *783:A1 I *D gf180mcu_fd_sc_mcu7t5v0__xor2_1
*I *830:B I *D gf180mcu_fd_sc_mcu7t5v0__oai211_1
*I *875:Q O *D gf180mcu_fd_sc_mcu7t5v0__dffrnq_1
*CAP
1 *783:A1 0.000614372
2 *830:B 0.000456165
3 *875:Q 0
4 *148:4 0.00107054
5 *783:A1 *875:RN 6.44359e-05
6 *783:A1 *885:RN 0
7 *783:A1 *152:14 8.94741e-05
8 *783:A1 *194:26 9.1336e-05
9 *830:B *807:A1 0
10 *830:B *875:RN 1.43468e-05
11 *830:B *152:14 0.000274653
12 *830:B *152:22 0.000126956
13 *830:B *175:85 3.17618e-05
14 *777:A1 *830:B 6.85351e-05
15 *777:A2 *830:B 0.00011703
16 *783:A2 *783:A1 0
17 *850:A2 *830:B 0.000514812
18 *147:12 *783:A1 0.000415986
19 *147:12 *830:B 0.000226501
*RES
1 *875:Q *148:4 4.5 
2 *148:4 *830:B 18.44 
3 *148:4 *783:A1 9.516 
*END

*D_NET *149 0.00209975
*CONN
*I *762:A2 I *D gf180mcu_fd_sc_mcu7t5v0__and2_1
*I *882:Q O *D gf180mcu_fd_sc_mcu7t5v0__dffrnq_1
*CAP
1 *762:A2 0.00069879
2 *882:Q 0.00069879
3 *762:A2 *762:A1 0.000158809
4 *762:A2 *763:A2 0.000106097
5 *762:A2 *865:RN 0.00026286
6 *762:A2 *882:RN 0
7 *762:A2 *883:RN 9.00369e-05
8 *762:A2 *934:I 0
9 *762:A2 *950:I 2.46566e-05
10 *762:A2 *953:I 5.97076e-05
11 *762:A2 *195:10 0
12 *762:A2 *195:19 0
*RES
1 *882:Q *762:A2 23.32 
*END

*D_NET *150 0.00428893
*CONN
*I *763:A2 I *D gf180mcu_fd_sc_mcu7t5v0__and2_1
*I *883:Q O *D gf180mcu_fd_sc_mcu7t5v0__dffrnq_1
*CAP
1 *763:A2 0.000747673
2 *883:Q 0.000747673
3 *763:A2 *761:A2 0.00091505
4 *763:A2 *763:A1 0.00017089
5 *763:A2 *784:A1 0
6 *763:A2 *865:RN 0.000247065
7 *763:A2 *885:RN 0.000154348
8 *763:A2 *959:I 0.000937855
9 *762:A2 *763:A2 0.000106097
10 *882:D *763:A2 5.9308e-05
11 *140:6 *763:A2 0.000202968
*RES
1 *883:Q *763:A2 27.044 
*END

*D_NET *151 0.00167766
*CONN
*I *764:A2 I *D gf180mcu_fd_sc_mcu7t5v0__and2_1
*I *884:Q O *D gf180mcu_fd_sc_mcu7t5v0__dffrnq_1
*CAP
1 *764:A2 0.000406136
2 *884:Q 0.000406136
3 *764:A2 *764:A1 0.000147313
4 *764:A2 *880:RN 0
5 *764:A2 *884:RN 8.29507e-05
6 *764:A2 *201:21 0.000561306
7 *764:A2 *203:42 7.18979e-05
8 *132:123 *764:A2 1.91917e-06
9 *140:16 *764:A2 0
*RES
1 *884:Q *764:A2 21.8 
*END

*D_NET *152 0.0118313
*CONN
*I *746:I I *D gf180mcu_fd_sc_mcu7t5v0__clkinv_1
*I *773:A1 I *D gf180mcu_fd_sc_mcu7t5v0__nand4_1
*I *786:A3 I *D gf180mcu_fd_sc_mcu7t5v0__nand3_1
*I *798:A1 I *D gf180mcu_fd_sc_mcu7t5v0__nor4_4
*I *885:Q O *D gf180mcu_fd_sc_mcu7t5v0__dffrnq_1
*CAP
1 *746:I 0
2 *773:A1 6.0317e-05
3 *786:A3 0.000761471
4 *798:A1 0.000295364
5 *885:Q 0.000832764
6 *152:37 0.00134648
7 *152:22 0.0012735
8 *152:14 0.00128621
9 *773:A1 *187:16 2.96621e-05
10 *786:A3 *182:22 0.000663505
11 *786:A3 *216:20 1.44832e-05
12 *152:14 *782:A1 0
13 *152:22 *775:A2 9.17202e-06
14 *152:22 *807:A1 0
15 *152:22 *175:85 8.94741e-05
16 *152:37 *189:10 0
17 *773:A2 *773:A1 4.14866e-05
18 *773:A3 *786:A3 0.000206333
19 *773:A3 *152:37 0.000669887
20 *777:A2 *152:14 2.03665e-05
21 *777:A2 *152:22 0.000708619
22 *783:A1 *152:14 8.94741e-05
23 *791:A2 *786:A3 2.14818e-05
24 *798:A3 *152:37 0.000228255
25 *805:A2 *152:22 0.000101621
26 *807:A2 *152:22 0
27 *830:B *152:14 0.000274653
28 *830:B *152:22 0.000126956
29 *864:D *152:14 0
30 *866:CLK *786:A3 0.000732431
31 *870:D *798:A1 1.52691e-05
32 *870:D *152:22 0.000168447
33 *870:CLK *798:A1 0.000169363
34 *871:D *152:22 0
35 *66:14 *773:A1 1.49066e-06
36 *66:32 *773:A1 1.91917e-06
37 *113:26 *152:22 5.89312e-05
38 *126:10 *152:14 1.72912e-05
39 *132:69 *152:22 4.39718e-05
40 *132:78 *798:A1 8.89016e-05
41 *132:78 *152:22 1.32442e-05
42 *134:12 *786:A3 0.000235417
43 *144:8 *798:A1 0
44 *147:12 *152:14 0.00113308
*RES
1 *885:Q *152:14 11.72 
2 *152:14 *152:22 13.712 
3 *152:22 *798:A1 6.704 
4 *152:22 *152:37 8.224 
5 *152:37 *786:A3 15.688 
6 *152:37 *773:A1 9.456 
7 *152:14 *746:I 4.5 
*END

*D_NET *153 0.00665468
*CONN
*I *819:A1 I *D gf180mcu_fd_sc_mcu7t5v0__xor2_1
*I *821:A1 I *D gf180mcu_fd_sc_mcu7t5v0__nand3_1
*I *825:A2 I *D gf180mcu_fd_sc_mcu7t5v0__nand4_1
*I *818:A1 I *D gf180mcu_fd_sc_mcu7t5v0__oai21_1
*I *769:A1 I *D gf180mcu_fd_sc_mcu7t5v0__or3_1
*I *816:A2 I *D gf180mcu_fd_sc_mcu7t5v0__nand3_1
*I *876:Q O *D gf180mcu_fd_sc_mcu7t5v0__dffrnq_1
*CAP
1 *819:A1 4.9203e-05
2 *821:A1 9.47475e-05
3 *825:A2 0.000203683
4 *818:A1 0
5 *769:A1 0
6 *816:A2 0
7 *876:Q 0.000251963
8 *153:42 0.000330096
9 *153:40 0.000587195
10 *153:29 0.00112839
11 *153:16 0.000953395
12 *153:12 0.000492202
13 *819:A1 *876:RN 4.93579e-05
14 *821:A1 *821:A2 3.78032e-05
15 *821:A1 *172:22 6.8298e-06
16 *825:A2 *749:I 0.000135869
17 *825:A2 *768:A3 0.000256175
18 *825:A2 *825:A3 1.67178e-05
19 *825:A2 *155:12 0.000139837
20 *153:12 *748:I 0.000109795
21 *153:12 *876:RN 7.91349e-05
22 *153:16 *748:I 0.00031143
23 *153:29 *748:I 4.14679e-05
24 *153:29 *172:22 0.000129847
25 *153:40 *821:A2 4.22854e-06
26 *153:40 *154:27 1.01183e-05
27 *153:40 *172:22 0.000266592
28 *153:42 *154:27 2.67803e-05
29 *153:42 *155:12 0.00045128
30 *153:42 *181:32 5.16356e-06
31 *769:A2 *153:29 2.49387e-05
32 *769:A3 *153:40 4.26843e-05
33 *769:A3 *153:42 4.02664e-05
34 *816:A3 *153:29 1.10617e-05
35 *824:A1 *153:40 6.31406e-05
36 *824:A1 *153:42 0.000164302
37 *827:A2 *825:A2 6.02669e-05
38 *827:A2 *153:42 2.6058e-05
39 *840:A1 *153:29 0
40 *840:B1 *153:29 0
41 *840:B1 *153:40 0
42 *857:D *153:29 0
43 *876:CLK *153:29 0
44 *66:68 *153:29 2.1777e-05
45 *66:81 *153:29 3.08801e-05
*RES
1 *876:Q *153:12 15.476 
2 *153:12 *153:16 6.248 
3 *153:16 *816:A2 9 
4 *153:16 *153:29 9.06 
5 *153:29 *769:A1 4.5 
6 *153:29 *153:40 7.54 
7 *153:40 *153:42 1.9 
8 *153:42 *818:A1 9 
9 *153:42 *825:A2 11.204 
10 *153:40 *821:A1 9.532 
11 *153:12 *819:A1 4.88 
*END

*D_NET *154 0.0060437
*CONN
*I *825:A3 I *D gf180mcu_fd_sc_mcu7t5v0__nand4_1
*I *821:A2 I *D gf180mcu_fd_sc_mcu7t5v0__nand3_1
*I *768:A1 I *D gf180mcu_fd_sc_mcu7t5v0__nand3_1
*I *748:I I *D gf180mcu_fd_sc_mcu7t5v0__clkinv_1
*I *877:Q O *D gf180mcu_fd_sc_mcu7t5v0__dffrnq_1
*CAP
1 *825:A3 0.000119713
2 *821:A2 9.81391e-05
3 *768:A1 0
4 *748:I 0.000364262
5 *877:Q 0
6 *154:27 0.000251388
7 *154:19 0.000491616
8 *154:4 0.000582917
9 *748:I *816:A1 2.23477e-05
10 *825:A3 *749:I 0.000147904
11 *825:A3 *768:A3 8.0352e-06
12 *825:A3 *825:A1 5.76373e-06
13 *825:A3 *181:8 0.000113029
14 *154:19 *825:A1 2.14028e-05
15 *154:19 *877:RN 0
16 *154:27 *768:A3 0.00048737
17 *154:27 *825:A1 5.59457e-05
18 *154:27 *155:12 8.62306e-05
19 *154:27 *181:32 0.000293758
20 *816:A3 *748:I 0.000256073
21 *818:B *748:I 0.000249128
22 *818:B *825:A3 7.83779e-05
23 *818:B *154:19 0.000898342
24 *819:A2 *748:I 0.000491
25 *821:A1 *821:A2 3.78032e-05
26 *825:A2 *825:A3 1.67178e-05
27 *840:B1 *821:A2 0.000215304
28 *840:B1 *154:27 0.000147313
29 *153:12 *748:I 0.000109795
30 *153:16 *748:I 0.00031143
31 *153:29 *748:I 4.14679e-05
32 *153:40 *821:A2 4.22854e-06
33 *153:40 *154:27 1.01183e-05
34 *153:42 *154:27 2.67803e-05
*RES
1 *877:Q *154:4 4.5 
2 *154:4 *748:I 17.604 
3 *154:4 *154:19 2.356 
4 *154:19 *154:27 11.432 
5 *154:27 *768:A1 4.5 
6 *154:27 *821:A2 5.412 
7 *154:19 *825:A3 5.716 
*END

*D_NET *155 0.0046149
*CONN
*I *749:I I *D gf180mcu_fd_sc_mcu7t5v0__clkinv_1
*I *821:A3 I *D gf180mcu_fd_sc_mcu7t5v0__nand3_1
*I *768:A2 I *D gf180mcu_fd_sc_mcu7t5v0__nand3_1
*I *878:Q O *D gf180mcu_fd_sc_mcu7t5v0__dffrnq_1
*CAP
1 *749:I 0.000541302
2 *821:A3 2.1726e-05
3 *768:A2 0
4 *878:Q 0
5 *155:12 8.79575e-05
6 *155:4 0.000607534
7 *749:I *768:A3 3.09935e-05
8 *749:I *825:A1 0
9 *749:I *827:A1 0.000515627
10 *749:I *156:27 0.000257023
11 *155:12 *768:A3 0.000557754
12 *820:A2 *749:I 6.26869e-05
13 *820:B1 *749:I 0
14 *825:A2 *749:I 0.000135869
15 *825:A2 *155:12 0.000139837
16 *825:A3 *749:I 0.000147904
17 *827:A2 *749:I 4.14731e-05
18 *840:A2 *821:A3 0.000281857
19 *840:A2 *155:12 7.83779e-05
20 *840:B1 *821:A3 0.000307983
21 *840:B1 *155:12 7.83779e-05
22 *878:D *749:I 0.000148773
23 *879:D *749:I 3.43375e-05
24 *104:14 *749:I 0
25 *153:42 *155:12 0.00045128
26 *154:27 *155:12 8.62306e-05
*RES
1 *878:Q *155:4 4.5 
2 *155:4 *155:12 11.128 
3 *155:12 *768:A2 4.5 
4 *155:12 *821:A3 5.336 
5 *155:4 *749:I 18.592 
*END

*D_NET *156 0.0047174
*CONN
*I *828:A1 I *D gf180mcu_fd_sc_mcu7t5v0__oai31_1
*I *827:A1 I *D gf180mcu_fd_sc_mcu7t5v0__nand2_1
*I *768:A3 I *D gf180mcu_fd_sc_mcu7t5v0__nand3_1
*I *879:Q O *D gf180mcu_fd_sc_mcu7t5v0__dffrnq_1
*CAP
1 *828:A1 0
2 *827:A1 4.24078e-05
3 *768:A3 0.000115451
4 *879:Q 0.000197634
5 *156:27 0.000105625
6 *156:10 0.000376302
7 *768:A3 *825:A1 0.00043841
8 *768:A3 *181:8 2.40328e-06
9 *156:10 *878:RN 0.000171325
10 *156:10 *181:8 1.49066e-06
11 *749:I *768:A3 3.09935e-05
12 *749:I *827:A1 0.000515627
13 *749:I *156:27 0.000257023
14 *825:A2 *768:A3 0.000256175
15 *825:A3 *768:A3 8.0352e-06
16 *825:A4 *156:10 3.83835e-06
17 *826:B1 *156:10 0.000128381
18 *827:A2 *827:A1 0.000111727
19 *827:A2 *156:27 0.000623573
20 *828:B *827:A1 0.000285856
21 *154:27 *768:A3 0.00048737
22 *155:12 *768:A3 0.000557754
*RES
1 *879:Q *156:10 5.944 
2 *156:10 *768:A3 16.388 
3 *156:10 *156:27 6.096 
4 *156:27 *827:A1 10.52 
5 *156:27 *828:A1 9 
*END

*D_NET *157 0.00413975
*CONN
*I *761:A2 I *D gf180mcu_fd_sc_mcu7t5v0__and2_1
*I *918:Z O *D gf180mcu_fd_sc_mcu7t5v0__buf_1
*CAP
1 *761:A2 0.000723105
2 *918:Z 0.000723105
3 *761:A2 *784:A1 0
4 *761:A2 *864:RN 5.65687e-05
5 *761:A2 *865:RN 0.00070427
6 *761:A2 *949:I 0.000238152
7 *761:A2 *950:I 0.000500493
8 *763:A2 *761:A2 0.00091505
9 *785:B *761:A2 0.000279004
*RES
1 *918:Z *761:A2 26.512 
*END

*D_NET *158 0.00531876
*CONN
*I *834:A1 I *D gf180mcu_fd_sc_mcu7t5v0__nand2_1
*I *940:I I *D gf180mcu_fd_sc_mcu7t5v0__buf_2
*I *854:Q O *D gf180mcu_fd_sc_mcu7t5v0__dffrnq_1
*CAP
1 *834:A1 0.000394244
2 *940:I 0.00213681
3 *854:Q 3.38494e-05
4 *158:6 0.00256491
5 *834:A1 *857:RN 0
6 *834:A1 *172:14 0.000148659
7 *834:A1 *172:22 3.00299e-05
8 *940:I *854:RN 0
9 *832:A1 *834:A1 0
10 *832:B *834:A1 1.02578e-05
*RES
1 *854:Q *158:6 4.728 
2 *158:6 *940:I 28.548 
3 *158:6 *834:A1 16.236 
*END

*D_NET *159 0.00307244
*CONN
*I *941:I I *D gf180mcu_fd_sc_mcu7t5v0__buf_2
*I *838:A2 I *D gf180mcu_fd_sc_mcu7t5v0__nand3_1
*I *856:Q O *D gf180mcu_fd_sc_mcu7t5v0__dffrnq_1
*CAP
1 *941:I 0
2 *838:A2 0.000657392
3 *856:Q 0.000342659
4 *159:10 0.00100005
5 *838:A2 *750:I 0.000412903
6 *838:A2 *836:A1 0.000242452
7 *838:A2 *184:8 0
8 *159:10 *929:I 0.000192331
9 phase_state[0] *159:10 0.000224654
*RES
1 *856:Q *159:10 11.736 
2 *159:10 *838:A2 13.788 
3 *159:10 *941:I 9 
*END

*D_NET *160 0.00657282
*CONN
*I *942:I I *D gf180mcu_fd_sc_mcu7t5v0__buf_2
*I *751:I I *D gf180mcu_fd_sc_mcu7t5v0__clkinv_1
*I *857:Q O *D gf180mcu_fd_sc_mcu7t5v0__dffrnq_1
*CAP
1 *942:I 0.000494288
2 *751:I 0.000227023
3 *857:Q 7.24144e-05
4 *160:8 0.000793726
5 *942:I *170:10 0.00129465
6 *942:I *170:25 0.000714514
7 *942:I *205:12 0.000129732
8 *160:8 *857:RN 2.05767e-05
9 *832:A1 *751:I 0.000311163
10 *832:B *751:I 0.000169808
11 *833:B1 *942:I 0.000145252
12 *835:A1 *751:I 1.5961e-05
13 *835:A1 *942:I 0.00048286
14 *835:A2 *160:8 7.91349e-05
15 *835:B *751:I 0.0001565
16 *837:A1 *942:I 0.000650831
17 *842:A2 *942:I 1.20889e-05
18 *842:B *942:I 0
19 *70:20 *942:I 4.7151e-05
20 *112:18 *751:I 0.000339645
21 *112:29 *751:I 8.79079e-05
22 *112:29 *942:I 0.000112737
23 *115:8 *751:I 7.87465e-05
24 *125:27 *942:I 0.000136112
*RES
1 *857:Q *160:8 9.532 
2 *160:8 *751:I 12.192 
3 *160:8 *942:I 17.436 
*END

*D_NET *161 0.00101295
*CONN
*I *943:I I *D gf180mcu_fd_sc_mcu7t5v0__buf_2
*I *841:A1 I *D gf180mcu_fd_sc_mcu7t5v0__nand2_1
*I *858:Q O *D gf180mcu_fd_sc_mcu7t5v0__dffrnq_1
*CAP
1 *943:I 0
2 *841:A1 0.00014283
3 *858:Q 0.000267916
4 *161:10 0.000410747
5 *841:A1 *170:32 9.26705e-05
6 *841:A1 *185:12 4.97712e-06
7 *161:10 *174:31 8.7332e-05
8 votes_in_phase[0] *161:10 6.47993e-06
*RES
1 *858:Q *161:10 10.672 
2 *161:10 *841:A1 10.064 
3 *161:10 *943:I 9 
*END

*D_NET *162 0.00252758
*CONN
*I *944:I I *D gf180mcu_fd_sc_mcu7t5v0__buf_2
*I *843:A1 I *D gf180mcu_fd_sc_mcu7t5v0__nand2_1
*I *859:Q O *D gf180mcu_fd_sc_mcu7t5v0__dffrnq_1
*CAP
1 *944:I 7.55802e-05
2 *843:A1 6.29245e-05
3 *859:Q 0.000416571
4 *162:10 0.000555075
5 *843:A1 *844:A1 3.40956e-05
6 *843:A1 *174:31 4.09047e-05
7 *843:A1 *186:10 0.000387765
8 *944:I *859:RN 2.6126e-05
9 *944:I *860:RN 0.000476718
10 *944:I *174:44 0.000158061
11 *944:I *186:12 5.22519e-05
12 *162:10 *174:31 0.00010804
13 *162:10 *185:12 5.19077e-05
14 *162:10 *186:10 8.15645e-05
15 votes_in_phase[1] *162:10 0
*RES
1 *859:Q *162:10 11.584 
2 *162:10 *843:A1 9.988 
3 *162:10 *944:I 10.444 
*END

*D_NET *163 0.00245475
*CONN
*I *945:I I *D gf180mcu_fd_sc_mcu7t5v0__buf_2
*I *845:A1 I *D gf180mcu_fd_sc_mcu7t5v0__nand2_1
*I *860:Q O *D gf180mcu_fd_sc_mcu7t5v0__dffrnq_1
*CAP
1 *945:I 0
2 *845:A1 0.000288275
3 *860:Q 0.000592922
4 *163:10 0.000881197
5 *845:A1 *845:A2 0.000119315
6 *845:A1 *171:12 0.000135941
7 *845:A1 *171:27 8.55327e-05
8 *163:10 *174:44 0
9 *163:10 *174:55 0
10 votes_in_phase[2] *163:10 0.000321542
11 *871:D *845:A1 3.00299e-05
*RES
1 *860:Q *163:10 12.8 
2 *163:10 *845:A1 11.28 
3 *163:10 *945:I 9 
*END

*D_NET *164 0.00201524
*CONN
*I *946:I I *D gf180mcu_fd_sc_mcu7t5v0__buf_2
*I *847:A1 I *D gf180mcu_fd_sc_mcu7t5v0__nand2_1
*I *861:Q O *D gf180mcu_fd_sc_mcu7t5v0__dffrnq_1
*CAP
1 *946:I 0
2 *847:A1 0.000313046
3 *861:Q 0.000401572
4 *164:10 0.000714618
5 *847:A1 *171:34 0.000193933
6 *847:A1 *174:55 0.000106153
7 *164:10 *861:RN 0
8 votes_in_phase[3] *164:10 0.000204929
9 *871:D *847:A1 8.04139e-05
10 *143:10 *847:A1 5.73322e-07
*RES
1 *861:Q *164:10 11.584 
2 *164:10 *847:A1 11.432 
3 *164:10 *946:I 9 
*END

*D_NET *165 0.00210913
*CONN
*I *947:I I *D gf180mcu_fd_sc_mcu7t5v0__buf_2
*I *849:A1 I *D gf180mcu_fd_sc_mcu7t5v0__nand2_1
*I *862:Q O *D gf180mcu_fd_sc_mcu7t5v0__dffrnq_1
*CAP
1 *947:I 0.000122725
2 *849:A1 0.00033533
3 *862:Q 0.000149822
4 *165:8 0.000607876
5 *849:A1 *851:A2 8.18282e-05
6 *849:A1 *171:42 0.00020108
7 *947:I *851:A2 0
8 *947:I *861:RN 2.6126e-05
9 *947:I *862:RN 0.000564624
10 votes_out_phase[0] *165:8 1.97166e-05
*RES
1 *862:Q *165:8 9.988 
2 *165:8 *849:A1 11.432 
3 *165:8 *947:I 10.444 
*END

*D_NET *166 0.00183509
*CONN
*I *948:I I *D gf180mcu_fd_sc_mcu7t5v0__buf_2
*I *851:A1 I *D gf180mcu_fd_sc_mcu7t5v0__nand2_1
*I *863:Q O *D gf180mcu_fd_sc_mcu7t5v0__dffrnq_1
*CAP
1 *948:I 0.000109769
2 *851:A1 0.000254331
3 *863:Q 0.000141362
4 *166:8 0.000505462
5 *851:A1 *171:42 0.00020108
6 *948:I *862:RN 0.000119234
7 *948:I *863:RN 0.000239669
8 *782:B *851:A1 0.000264187
*RES
1 *863:Q *166:8 9.836 
2 *166:8 *851:A1 11.432 
3 *166:8 *948:I 10.444 
*END

*D_NET *167 0.00242761
*CONN
*I *949:I I *D gf180mcu_fd_sc_mcu7t5v0__buf_2
*I *781:A1 I *D gf180mcu_fd_sc_mcu7t5v0__nand2_1
*I *864:Q O *D gf180mcu_fd_sc_mcu7t5v0__dffrnq_1
*CAP
1 *949:I 0.000239237
2 *781:A1 0.000250731
3 *864:Q 3.28034e-05
4 *167:6 0.000522772
5 *781:A1 *784:A2 0
6 *781:A1 *862:RN 0
7 *781:A1 *863:RN 0.00020108
8 *781:A1 *864:RN 0.000216231
9 *949:I *862:RN 0.000386685
10 *949:I *864:RN 2.24173e-05
11 *949:I *950:I 0.000317503
12 *761:A2 *949:I 0.000238152
*RES
1 *864:Q *167:6 4.728 
2 *167:6 *781:A1 6.704 
3 *167:6 *949:I 7.692 
*END

*D_NET *168 0.00711639
*CONN
*I *753:A2 I *D gf180mcu_fd_sc_mcu7t5v0__and2_1
*I *919:Z O *D gf180mcu_fd_sc_mcu7t5v0__buf_1
*CAP
1 *753:A2 0.00132662
2 *919:Z 0.00132662
3 *753:A2 *757:A2 7.20635e-05
4 *753:A2 *762:A1 0.000146051
5 *753:A2 *880:RN 0.000179597
6 *753:A2 *884:RN 0
7 *753:A2 *917:I 0.00040667
8 *753:A2 *935:I 0.000158886
9 *753:A2 *957:I 0.000121345
10 *753:A2 *960:I 0.000841569
11 *753:A2 *176:14 0.000404549
12 *753:A2 *176:38 0.000318372
13 *753:A2 *177:10 0.000289894
14 *753:A2 *177:12 0.000172184
15 *753:A2 *177:18 0.000350423
16 *753:A2 *192:12 0
17 *753:A2 *192:34 0.000407104
18 *753:A2 *195:10 0
19 *753:A2 *196:10 2.4706e-05
20 *753:A2 *201:17 0.000208403
21 *753:A2 *201:53 4.37925e-05
22 *881:D *753:A2 0.000293454
23 *883:D *753:A2 2.40935e-05
*RES
1 *919:Z *753:A2 37 
*END

*D_NET *169 0.00409961
*CONN
*I *950:I I *D gf180mcu_fd_sc_mcu7t5v0__buf_2
*I *784:A1 I *D gf180mcu_fd_sc_mcu7t5v0__nand2_1
*I *865:Q O *D gf180mcu_fd_sc_mcu7t5v0__dffrnq_1
*CAP
1 *950:I 0.000339141
2 *784:A1 0.000576347
3 *865:Q 0
4 *169:4 0.000915488
5 *784:A1 *864:RN 0
6 *784:A1 *865:RN 0
7 *950:I *862:RN 0.000734813
8 *950:I *883:RN 0.000222453
9 votes_out_phase[3] *950:I 0.000438681
10 *761:A2 *784:A1 0
11 *761:A2 *950:I 0.000500493
12 *762:A2 *950:I 2.46566e-05
13 *763:A2 *784:A1 0
14 *918:I *950:I 3.00299e-05
15 *949:I *950:I 0.000317503
*RES
1 *865:Q *169:4 4.5 
2 *169:4 *784:A1 16.996 
3 *169:4 *950:I 9.972 
*END

*D_NET *170 0.00761606
*CONN
*I *955:I I *D gf180mcu_fd_sc_mcu7t5v0__buf_1
*I *843:A2 I *D gf180mcu_fd_sc_mcu7t5v0__nand2_1
*I *841:A2 I *D gf180mcu_fd_sc_mcu7t5v0__nand2_1
*I *923:I I *D gf180mcu_fd_sc_mcu7t5v0__buf_2
*I *910:Z O *D gf180mcu_fd_sc_mcu7t5v0__dlyb_1
*CAP
1 *955:I 0.000131467
2 *843:A2 0
3 *841:A2 0
4 *923:I 0
5 *910:Z 0.000170333
6 *170:32 0.000552987
7 *170:25 0.000929225
8 *170:10 0.000678038
9 *955:I *171:12 5.87561e-06
10 *955:I *174:44 2.96621e-05
11 *955:I *186:10 0.000451288
12 *170:25 *851:A2 0.000148278
13 *170:25 *185:12 0
14 *170:25 *205:12 0.000238068
15 *170:32 *851:A2 7.7203e-05
16 *170:32 *859:RN 4.04114e-05
17 *170:32 *171:12 2.9378e-06
18 *170:32 *174:44 0.00015398
19 *170:32 *185:12 0
20 *779:A1 *170:10 0.00013063
21 *835:A1 *170:10 0.000362602
22 *837:A2 *170:10 0.000214091
23 *837:A2 *170:25 2.47642e-05
24 *841:A1 *170:32 9.26705e-05
25 *842:B *170:25 0.000624994
26 *924:I *170:25 0.000193933
27 *942:I *170:10 0.00129465
28 *942:I *170:25 0.000714514
29 *69:12 *170:10 0.000137785
30 *115:8 *170:10 0.000215676
*RES
1 *910:Z *170:10 12.8 
2 *170:10 *923:I 9 
3 *170:10 *170:25 10.656 
4 *170:25 *841:A2 4.5 
5 *170:25 *170:32 3.116 
6 *170:32 *843:A2 4.5 
7 *170:32 *955:I 14.868 
*END

*D_NET *171 0.00899164
*CONN
*I *849:A2 I *D gf180mcu_fd_sc_mcu7t5v0__nand2_1
*I *781:A2 I *D gf180mcu_fd_sc_mcu7t5v0__nand2_1
*I *784:A2 I *D gf180mcu_fd_sc_mcu7t5v0__nand2_1
*I *847:A2 I *D gf180mcu_fd_sc_mcu7t5v0__nand2_1
*I *845:A2 I *D gf180mcu_fd_sc_mcu7t5v0__nand2_1
*I *955:Z O *D gf180mcu_fd_sc_mcu7t5v0__buf_1
*CAP
1 *849:A2 0
2 *781:A2 0.000134205
3 *784:A2 0.000374171
4 *847:A2 0
5 *845:A2 5.74896e-05
6 *955:Z 0.000601968
7 *171:42 0.00120645
8 *171:34 0.000834617
9 *171:27 0.000223294
10 *171:12 0.000746205
11 *784:A2 *863:RN 0
12 *784:A2 *864:RN 0
13 *171:12 *851:A2 0.000883914
14 *171:12 *174:44 6.2832e-05
15 *171:12 *174:55 4.69066e-05
16 *171:27 *851:A2 0.00090348
17 *171:34 *851:A2 0.000848854
18 *171:42 *851:A2 0.000198418
19 *781:A1 *784:A2 0
20 *782:B *781:A2 0
21 *782:B *171:42 0
22 *845:A1 *845:A2 0.000119315
23 *845:A1 *171:12 0.000135941
24 *845:A1 *171:27 8.55327e-05
25 *847:A1 *171:34 0.000193933
26 *849:A1 *171:42 0.00020108
27 *851:A1 *171:42 0.00020108
28 *860:D *171:12 5.86759e-05
29 *862:D *171:42 0
30 *863:D *171:42 0
31 *871:D *845:A2 9.26705e-05
32 *871:D *171:27 0.000307302
33 *871:D *171:34 4.24903e-05
34 *871:CLK *171:12 0.000422006
35 *955:I *171:12 5.87561e-06
36 *170:32 *171:12 2.9378e-06
*RES
1 *955:Z *171:12 15.004 
2 *171:12 *845:A2 9.608 
3 *171:12 *171:27 6.856 
4 *171:27 *847:A2 4.5 
5 *171:27 *171:34 2.204 
6 *171:34 *171:42 9.592 
7 *171:42 *784:A2 11.204 
8 *171:42 *781:A2 9.988 
9 *171:34 *849:A2 4.5 
*END

*D_NET *172 0.00985143
*CONN
*I *834:A2 I *D gf180mcu_fd_sc_mcu7t5v0__nand2_1
*I *817:A2 I *D gf180mcu_fd_sc_mcu7t5v0__nand2_1
*I *823:A1 I *D gf180mcu_fd_sc_mcu7t5v0__nand2_1
*I *923:Z O *D gf180mcu_fd_sc_mcu7t5v0__buf_2
*CAP
1 *834:A2 0
2 *817:A2 0
3 *823:A1 0.000172734
4 *923:Z 0.000564039
5 *172:22 0.00133508
6 *172:14 0.00172638
7 *823:A1 *878:RN 3.08902e-05
8 *823:A1 *188:10 0.00014967
9 *823:A1 *191:22 0.00032464
10 *769:A2 *172:22 7.3227e-05
11 *769:A3 *172:22 0.000716481
12 *793:A4 *172:22 1.34641e-06
13 *821:A1 *172:22 6.8298e-06
14 *822:I *172:22 0
15 *823:A2 *823:A1 0.000317503
16 *824:A1 *172:22 0
17 *824:A2 *172:22 9.50338e-05
18 *825:A4 *823:A1 0.000107868
19 *832:B *172:22 9.57386e-05
20 *834:A1 *172:14 0.000148659
21 *834:A1 *172:22 3.00299e-05
22 *835:B *172:14 0.000191531
23 *836:A2 *172:14 8.27107e-05
24 *837:A2 *172:14 0.000228948
25 *840:B1 *823:A1 3.47244e-05
26 *840:B1 *172:22 3.07722e-05
27 *842:B *172:14 1.99058e-05
28 *854:CLK *172:14 5.25777e-05
29 *855:D *172:14 2.96621e-05
30 *856:D *172:14 0.000471934
31 *858:D *172:14 0.000120961
32 *869:CLK *172:22 0
33 *65:20 *823:A1 0
34 *65:20 *172:22 0
35 *65:40 *172:22 0
36 *85:55 *823:A1 0
37 *106:8 *823:A1 1.75405e-05
38 *106:8 *172:22 6.33531e-06
39 *115:8 *172:14 0.00227123
40 *153:29 *172:22 0.000129847
41 *153:40 *172:22 0.000266592
*RES
1 *923:Z *172:14 21.784 
2 *172:14 *172:22 13.696 
3 *172:22 *823:A1 11.128 
4 *172:22 *817:A2 9 
5 *172:14 *834:A2 4.5 
*END

*D_NET *173 0.00836758
*CONN
*I *851:A2 I *D gf180mcu_fd_sc_mcu7t5v0__nand2_1
*I *956:Z O *D gf180mcu_fd_sc_mcu7t5v0__dlyb_1
*CAP
1 *851:A2 0.00197972
2 *956:Z 0.00197972
3 *851:A2 *861:RN 0
4 *851:A2 *174:55 0
5 *844:B *851:A2 0.000310356
6 *846:B *851:A2 0.000515568
7 *849:A1 *851:A2 8.18282e-05
8 *859:D *851:A2 1.09994e-05
9 *871:D *851:A2 7.24161e-06
10 *871:CLK *851:A2 0.000422006
11 *947:I *851:A2 0
12 *170:25 *851:A2 0.000148278
13 *170:32 *851:A2 7.7203e-05
14 *171:12 *851:A2 0.000883914
15 *171:27 *851:A2 0.00090348
16 *171:34 *851:A2 0.000848854
17 *171:42 *851:A2 0.000198418
*RES
1 *956:Z *851:A2 26.784 
*END

*D_NET *174 0.016668
*CONN
*I *852:A1 I *D gf180mcu_fd_sc_mcu7t5v0__oai21_1
*I *785:A1 I *D gf180mcu_fd_sc_mcu7t5v0__oai21_1
*I *782:A1 I *D gf180mcu_fd_sc_mcu7t5v0__oai21_1
*I *848:A1 I *D gf180mcu_fd_sc_mcu7t5v0__oai21_1
*I *850:A1 I *D gf180mcu_fd_sc_mcu7t5v0__oai21_1
*I *846:A1 I *D gf180mcu_fd_sc_mcu7t5v0__oai21_1
*I *844:A1 I *D gf180mcu_fd_sc_mcu7t5v0__oai21_1
*I *842:A1 I *D gf180mcu_fd_sc_mcu7t5v0__oai21_1
*I *924:Z O *D gf180mcu_fd_sc_mcu7t5v0__buf_2
*CAP
1 *852:A1 0
2 *785:A1 0.000257462
3 *782:A1 0.000240742
4 *848:A1 0
5 *850:A1 0.000742573
6 *846:A1 0
7 *844:A1 0.000278855
8 *842:A1 0.000790414
9 *924:Z 3.63862e-05
10 *174:90 0.000818463
11 *174:86 0.000640877
12 *174:55 0.00146355
13 *174:44 0.00152646
14 *174:31 0.00132443
15 *174:6 0.00138751
16 *842:A1 *856:RN 0.000651408
17 *842:A1 *929:I 2.22758e-05
18 *842:A1 *184:8 0.000364031
19 *842:A1 *185:16 0.000197873
20 *842:A1 *205:12 0
21 *844:A1 *186:10 3.18954e-05
22 *174:6 *185:16 1.88647e-06
23 *174:31 *185:12 0.00118316
24 *174:31 *185:16 6.73823e-05
25 *174:44 *859:RN 5.19077e-05
26 *174:44 *860:RN 6.05076e-05
27 *174:55 *861:RN 0.000231978
28 phase_state[1] *842:A1 0.000120112
29 votes_in_phase[0] *174:31 0.000149579
30 votes_in_phase[2] *174:55 0
31 *805:A2 *850:A1 2.97523e-05
32 *806:A2 *850:A1 7.08923e-06
33 *807:A2 *850:A1 0.000136874
34 *836:A2 *842:A1 5.70962e-05
35 *842:B *842:A1 0.000225791
36 *843:A1 *844:A1 3.40956e-05
37 *843:A1 *174:31 4.09047e-05
38 *844:B *844:A1 4.724e-05
39 *847:A1 *174:55 0.000106153
40 *851:A2 *174:55 0
41 *853:CLK *842:A1 7.90644e-05
42 *854:CLK *842:A1 0.000177337
43 *860:D *174:44 0.000379283
44 *862:D *174:86 0.000110111
45 *862:CLK *782:A1 5.76373e-06
46 *862:CLK *174:86 0.000104743
47 *862:CLK *174:90 9.4764e-05
48 *863:D *174:90 0.000134206
49 *864:D *782:A1 0.000194084
50 *865:D *785:A1 0
51 *871:D *850:A1 8.30464e-05
52 *871:D *174:55 0.000173033
53 *944:I *174:44 0.000158061
54 *955:I *174:44 2.96621e-05
55 *98:12 *850:A1 9.88736e-06
56 *139:6 *782:A1 3.08902e-05
57 *139:6 *785:A1 0.000348384
58 *139:20 *785:A1 0.000431543
59 *139:41 *782:A1 0.000230481
60 *139:41 *174:90 0.000107858
61 *152:14 *782:A1 0
62 *161:10 *174:31 8.7332e-05
63 *162:10 *174:31 0.00010804
64 *163:10 *174:44 0
65 *163:10 *174:55 0
66 *170:32 *174:44 0.00015398
67 *171:12 *174:44 6.2832e-05
68 *171:12 *174:55 4.69066e-05
*RES
1 *924:Z *174:6 4.728 
2 *174:6 *842:A1 22.164 
3 *174:6 *174:31 10.352 
4 *174:31 *844:A1 11.052 
5 *174:31 *174:44 8.832 
6 *174:44 *846:A1 4.5 
7 *174:44 *174:55 11.644 
8 *174:55 *850:A1 11.888 
9 *174:55 *848:A1 9 
10 *850:A1 *174:86 7.16 
11 *174:86 *174:90 2.812 
12 *174:90 *782:A1 6.552 
13 *174:90 *785:A1 6.932 
14 *174:86 *852:A1 4.5 
*END

*D_NET *175 0.0154704
*CONN
*I *796:A1 I *D gf180mcu_fd_sc_mcu7t5v0__nor2_1
*I *805:A1 I *D gf180mcu_fd_sc_mcu7t5v0__nor2_1
*I *807:A1 I *D gf180mcu_fd_sc_mcu7t5v0__nor2_1
*I *815:A1 I *D gf180mcu_fd_sc_mcu7t5v0__nor2_1
*I *814:A2 I *D gf180mcu_fd_sc_mcu7t5v0__nor2_1
*I *813:A1 I *D gf180mcu_fd_sc_mcu7t5v0__nor2_1
*I *810:A1 I *D gf180mcu_fd_sc_mcu7t5v0__nor2_1
*I *801:A1 I *D gf180mcu_fd_sc_mcu7t5v0__nor2_1
*I *925:Z O *D gf180mcu_fd_sc_mcu7t5v0__buf_2
*CAP
1 *796:A1 0.000535554
2 *805:A1 0
3 *807:A1 0.000152597
4 *815:A1 0.000462007
5 *814:A2 0
6 *813:A1 1.53294e-05
7 *810:A1 0.000177706
8 *801:A1 0
9 *925:Z 1.7672e-05
10 *175:85 0.000522398
11 *175:63 0.000911951
12 *175:55 0.000850294
13 *175:29 0.000556631
14 *175:27 0.00239102
15 *175:14 0.00228672
16 *175:8 0.000843063
17 *807:A1 *775:A2 2.4706e-05
18 *810:A1 *914:I 3.72807e-05
19 *815:A1 *764:A1 0
20 *815:A1 *211:26 0.000209048
21 *175:27 *766:A2 0.000160736
22 *175:63 *211:26 0.000183516
23 *774:A1 *175:29 0.000222333
24 *774:A2 *175:29 0
25 *775:A4 *175:29 0.000135327
26 *775:A4 *175:55 8.34666e-05
27 *775:A4 *175:85 7.90644e-05
28 *793:A4 *175:14 0
29 *805:A2 *807:A1 0.000100112
30 *805:A2 *175:85 1.5015e-05
31 *808:A2 *175:63 0
32 *809:A1 *175:63 0.000305296
33 *809:A2 *175:63 2.05156e-05
34 *810:A2 *810:A1 8.55242e-05
35 *810:A2 *175:29 0
36 *810:A2 *175:85 0
37 *811:A1 *175:29 5.57607e-05
38 *811:A1 *175:55 0.000198571
39 *811:A1 *175:63 7.83779e-05
40 *811:A1 *175:85 8.15645e-05
41 *812:A1 *175:63 1.15275e-05
42 *812:A2 *175:63 0.000458611
43 *813:A2 *813:A1 3.73627e-05
44 *814:A1 *175:63 0.000136871
45 *824:A1 *796:A1 5.21161e-05
46 *824:A1 *175:14 8.49711e-05
47 *830:B *807:A1 0
48 *830:B *175:85 3.17618e-05
49 *839:A2 *796:A1 0.000669963
50 *844:A2 *796:A1 4.80846e-05
51 *850:A2 *175:85 0.000150074
52 *868:CLK *796:A1 4.50449e-05
53 *869:D *796:A1 2.49689e-05
54 *869:D *175:14 7.32666e-05
55 *870:D *807:A1 2.6126e-05
56 *873:D *810:A1 0.000158878
57 *873:D *175:29 4.07337e-05
58 *874:D *815:A1 0.000308746
59 *874:CLK *815:A1 0
60 *875:D *815:A1 6.85645e-06
61 *875:D *175:63 3.87534e-05
62 *885:D *815:A1 0.00012222
63 *3:22 *813:A1 3.73627e-05
64 *79:10 *796:A1 6.67259e-05
65 *90:8 *796:A1 0.000201263
66 *113:26 *807:A1 9.26705e-05
67 *113:26 *175:8 6.26721e-05
68 *113:26 *175:85 0.000417311
69 *136:8 *796:A1 3.46661e-05
70 *141:10 *175:8 0.000142194
71 *152:22 *807:A1 0
72 *152:22 *175:85 8.94741e-05
*RES
1 *925:Z *175:8 9.38 
2 *175:8 *175:14 6.628 
3 *175:14 *801:A1 13.5 
4 *175:14 *175:27 14.912 
5 *175:27 *175:29 2.812 
6 *175:29 *810:A1 10.52 
7 *175:29 *813:A1 9.228 
8 *175:27 *175:55 0.532 
9 *175:55 *175:63 9.288 
10 *175:63 *814:A2 4.5 
11 *175:63 *815:A1 8.452 
12 *175:55 *175:85 7.92 
13 *175:85 *807:A1 14.716 
14 *175:85 *805:A1 4.5 
15 *175:8 *796:A1 14.624 
*END

*D_NET *176 0.0105392
*CONN
*I *756:A1 I *D gf180mcu_fd_sc_mcu7t5v0__and2_1
*I *761:A1 I *D gf180mcu_fd_sc_mcu7t5v0__and2_1
*I *752:A2 I *D gf180mcu_fd_sc_mcu7t5v0__and2_1
*I *926:I I *D gf180mcu_fd_sc_mcu7t5v0__buf_2
*I *755:A1 I *D gf180mcu_fd_sc_mcu7t5v0__and2_1
*I *911:Z O *D gf180mcu_fd_sc_mcu7t5v0__dlyb_1
*CAP
1 *756:A1 0
2 *761:A1 0.00141075
3 *752:A2 0.000234367
4 *926:I 0.000266737
5 *755:A1 0
6 *911:Z 0.000270846
7 *176:42 0.00190451
8 *176:38 0.000801608
9 *176:18 0.000312441
10 *176:14 0.00085876
11 *761:A1 *885:RN 0.000270837
12 *926:I *957:I 5.75752e-06
13 *926:I *177:10 1.3758e-05
14 *926:I *182:22 0
15 *176:14 *755:A2 0.00020862
16 *176:14 *917:I 0.000285856
17 *176:14 *960:I 6.14579e-05
18 *176:14 *177:47 1.15312e-05
19 *176:18 *755:A2 1.3758e-05
20 *176:38 *755:A2 0.000151957
21 *176:38 *756:A2 0.000333958
22 *176:38 *892:RN 8.18282e-05
23 *176:38 *960:I 0.000184374
24 *176:38 *196:10 0.00070767
25 *753:A2 *176:14 0.000404549
26 *753:A2 *176:38 0.000318372
27 *785:A2 *761:A1 0
28 *785:B *761:A1 0.000476427
29 *815:A2 *761:A1 0
30 *864:D *761:A1 4.75539e-05
31 *874:D *761:A1 3.89082e-05
32 *875:D *761:A1 0
33 *880:D *176:38 5.05539e-05
34 *880:CLK *176:14 1.34641e-06
35 *880:CLK *176:38 5.24096e-05
36 *882:D *761:A1 0.000159181
37 *886:D *176:14 0
38 *893:CLK *176:38 0.000214408
39 *893:CLK *176:42 0.000149579
40 *3:22 *176:42 0.000111992
41 *132:53 *176:42 3.60188e-05
42 *138:43 *176:14 8.64878e-05
*RES
1 *911:Z *176:14 12.8 
2 *176:14 *176:18 4.728 
3 *176:18 *755:A1 4.5 
4 *176:18 *926:I 5.868 
5 *176:14 *176:38 11.492 
6 *176:38 *176:42 6.704 
7 *176:42 *752:A2 10.444 
8 *176:42 *761:A1 19.716 
9 *176:38 *756:A1 4.5 
*END

*D_NET *177 0.0104884
*CONN
*I *760:A1 I *D gf180mcu_fd_sc_mcu7t5v0__and2_1
*I *759:A1 I *D gf180mcu_fd_sc_mcu7t5v0__and2_1
*I *758:A1 I *D gf180mcu_fd_sc_mcu7t5v0__and2_1
*I *757:A1 I *D gf180mcu_fd_sc_mcu7t5v0__and2_1
*I *753:A1 I *D gf180mcu_fd_sc_mcu7t5v0__and2_1
*I *754:A1 I *D gf180mcu_fd_sc_mcu7t5v0__and2_1
*I *926:Z O *D gf180mcu_fd_sc_mcu7t5v0__buf_2
*CAP
1 *760:A1 0.000619286
2 *759:A1 0.000173773
3 *758:A1 9.00976e-05
4 *757:A1 4.59686e-05
5 *753:A1 0
6 *754:A1 0.000295457
7 *926:Z 7.47794e-05
8 *177:66 0.00122117
9 *177:47 0.00140901
10 *177:18 0.000607956
11 *177:12 0.000383831
12 *177:10 0.000990944
13 *757:A1 *911:I 1.49066e-06
14 *758:A1 *758:A2 0.000158869
15 *759:A1 *759:A2 0.000515489
16 *760:A1 *182:22 7.24052e-05
17 *760:A1 *197:10 7.24052e-05
18 *177:10 *957:I 0.000843856
19 *177:12 *911:I 0.000342528
20 *177:12 *957:I 0.00018371
21 *177:18 *911:I 0.000390043
22 *177:18 *917:I 1.18942e-05
23 *177:18 *201:8 4.23955e-05
24 *177:47 *886:RN 2.11766e-05
25 *177:47 *890:RN 7.53241e-05
26 *177:47 *891:RN 0
27 *177:47 *198:6 4.2318e-06
28 *177:66 *758:A2 0.000129342
29 *177:66 *759:A2 5.48978e-05
30 *177:66 *887:RN 0.000299729
31 *177:66 *198:6 0.000126873
32 *753:A2 *177:10 0.000289894
33 *753:A2 *177:12 0.000172184
34 *753:A2 *177:18 0.000350423
35 *886:D *757:A1 1.91917e-06
36 *889:D *760:A1 0
37 *890:D *754:A1 0
38 *890:CLK *754:A1 2.57058e-06
39 *906:I *177:47 2.6126e-05
40 *906:I *177:66 6.25174e-05
41 *926:I *177:10 1.3758e-05
42 *137:10 *177:66 0.000159859
43 *137:14 *758:A1 0
44 *137:53 *759:A1 0.000138695
45 *176:14 *177:47 1.15312e-05
*RES
1 *926:Z *177:10 11.28 
2 *177:10 *177:12 1.292 
3 *177:12 *177:18 7.996 
4 *177:18 *754:A1 6.324 
5 *177:18 *753:A1 4.5 
6 *177:12 *757:A1 9.228 
7 *177:10 *177:47 14.092 
8 *177:47 *758:A1 9.836 
9 *177:47 *177:66 13.028 
10 *177:66 *759:A1 11.052 
11 *177:66 *760:A1 12.496 
*END

*D_NET *178 0.00490655
*CONN
*I *957:I I *D gf180mcu_fd_sc_mcu7t5v0__buf_1
*I *911:I I *D gf180mcu_fd_sc_mcu7t5v0__dlyb_1
*I *912:Z O *D gf180mcu_fd_sc_mcu7t5v0__dlyb_1
*CAP
1 *957:I 9.91482e-05
2 *911:I 0.000166066
3 *912:Z 0
4 *178:6 0.000265214
5 *911:I *757:A2 0.000467288
6 *911:I *201:8 0.000120538
7 *957:I *757:A2 0.00153119
8 *957:I *182:22 5.75752e-06
9 *753:A2 *957:I 0.000121345
10 *757:A1 *911:I 1.49066e-06
11 *886:D *911:I 0.000362617
12 *926:I *957:I 5.75752e-06
13 *177:10 *957:I 0.000843856
14 *177:12 *911:I 0.000342528
15 *177:12 *957:I 0.00018371
16 *177:18 *911:I 0.000390043
*RES
1 *912:Z *178:6 9 
2 *178:6 *911:I 11.888 
3 *178:6 *957:I 12.952 
*END

*D_NET *179 0.00472061
*CONN
*I *757:A2 I *D gf180mcu_fd_sc_mcu7t5v0__and2_1
*I *920:Z O *D gf180mcu_fd_sc_mcu7t5v0__buf_1
*CAP
1 *757:A2 9.70884e-05
2 *920:Z 9.70884e-05
3 *757:A2 *182:22 7.83779e-05
4 *757:A2 *201:8 0.000921092
5 *757:A2 *201:17 0.00142676
6 *753:A2 *757:A2 7.20635e-05
7 *911:I *757:A2 0.000467288
8 *920:I *757:A2 2.96621e-05
9 *957:I *757:A2 0.00153119
*RES
1 *920:Z *757:A2 23.928 
*END

*D_NET *180 0.00719743
*CONN
*I *838:A1 I *D gf180mcu_fd_sc_mcu7t5v0__nand3_1
*I *771:A1 I *D gf180mcu_fd_sc_mcu7t5v0__nand2_2
*I *745:I I *D gf180mcu_fd_sc_mcu7t5v0__clkinv_1
*I *927:Z O *D gf180mcu_fd_sc_mcu7t5v0__clkbuf_1
*CAP
1 *838:A1 0.000855475
2 *771:A1 1.30634e-05
3 *745:I 4.242e-05
4 *927:Z 0.000353518
5 *180:21 0.00106429
6 *180:10 0.000591688
7 *180:10 *780:A1 0.000165295
8 *771:A2 *180:10 4.07337e-05
9 *771:A2 *180:21 0.000151288
10 *780:A2 *180:10 0.000156492
11 *831:A2 *180:10 0
12 *833:A2 *838:A1 0.000404151
13 *836:A2 *838:A1 7.43814e-05
14 *839:B *838:A1 2.40654e-06
15 *853:D *838:A1 0
16 *853:CLK *838:A1 0.000424397
17 *856:D *838:A1 4.78487e-05
18 *858:D *838:A1 0.000716503
19 *868:D *745:I 0
20 *868:D *771:A1 9.74134e-05
21 *868:CLK *771:A1 0.000209085
22 *895:I *180:10 8.01306e-06
23 *924:I *838:A1 3.75951e-05
24 *956:I *180:21 0
25 *69:8 *180:10 0.000168413
26 *70:8 *838:A1 1.90639e-05
27 *70:8 *180:21 4.1938e-05
28 *79:10 *180:10 0
29 *112:18 *180:10 0.000399641
30 *135:18 *838:A1 6.73834e-05
31 *135:20 *838:A1 0.000374073
32 *135:22 *838:A1 0.000301956
33 *141:10 *180:10 0.000368902
*RES
1 *927:Z *180:10 13.256 
2 *180:10 *745:I 9.228 
3 *180:10 *180:21 1.596 
4 *180:21 *771:A1 9.532 
5 *180:21 *838:A1 17.892 
*END

*D_NET *181 0.0100081
*CONN
*I *780:A1 I *D gf180mcu_fd_sc_mcu7t5v0__nand2_2
*I *927:I I *D gf180mcu_fd_sc_mcu7t5v0__clkbuf_1
*I *825:A1 I *D gf180mcu_fd_sc_mcu7t5v0__nand4_1
*I *816:A1 I *D gf180mcu_fd_sc_mcu7t5v0__nand3_1
*I *928:Z O *D gf180mcu_fd_sc_mcu7t5v0__clkbuf_2
*CAP
1 *780:A1 0.000316261
2 *927:I 1.89933e-05
3 *825:A1 0.000233948
4 *816:A1 0.000138847
5 *928:Z 0.000282636
6 *181:32 0.000738243
7 *181:19 0.000636936
8 *181:8 0.000421483
9 *780:A1 *868:RN 7.02402e-05
10 *825:A1 *878:RN 6.0086e-05
11 *181:8 *182:39 3.07734e-05
12 *181:8 *191:22 1.53689e-05
13 *748:I *816:A1 2.23477e-05
14 *749:I *825:A1 0
15 *768:A3 *825:A1 0.00043841
16 *768:A3 *181:8 2.40328e-06
17 *769:A3 *181:32 0.000559017
18 *780:A2 *780:A1 6.17482e-06
19 *780:A2 *181:32 2.4706e-05
20 *818:B *816:A1 0.00100531
21 *818:B *181:8 0.000164595
22 *823:A2 *181:8 6.50663e-05
23 *824:A1 *780:A1 0
24 *824:A1 *181:32 0
25 *824:B *181:8 0.000193889
26 *825:A3 *825:A1 5.76373e-06
27 *825:A3 *181:8 0.000113029
28 *825:A4 *181:8 0.000538438
29 *828:A2 *825:A1 2.38523e-05
30 *869:CLK *181:32 0.000332214
31 *876:D *816:A1 8.28875e-05
32 *66:53 *816:A1 0.000834999
33 *66:53 *181:8 0.000664935
34 *79:10 *780:A1 4.72007e-05
35 *85:10 *181:8 6.13012e-05
36 *85:55 *181:8 0.000628779
37 *104:14 *825:A1 0.000140115
38 *104:14 *181:32 5.8775e-05
39 *112:18 *780:A1 0.000190317
40 *113:26 *927:I 0.000203989
41 *141:10 *927:I 9.27168e-05
42 *153:42 *181:32 5.16356e-06
43 *154:19 *825:A1 2.14028e-05
44 *154:27 *825:A1 5.59457e-05
45 *154:27 *181:32 0.000293758
46 *156:10 *181:8 1.49066e-06
47 *180:10 *780:A1 0.000165295
*RES
1 *928:Z *181:8 9.364 
2 *181:8 *816:A1 7.692 
3 *181:8 *181:19 4.5 
4 *181:19 *825:A1 11.584 
5 *181:19 *181:32 4.484 
6 *181:32 *927:I 9.532 
7 *181:32 *780:A1 11.432 
*END

*D_NET *182 0.0139135
*CONN
*I *786:A2 I *D gf180mcu_fd_sc_mcu7t5v0__nand3_1
*I *787:A1 I *D gf180mcu_fd_sc_mcu7t5v0__nand2_1
*I *928:I I *D gf180mcu_fd_sc_mcu7t5v0__clkbuf_2
*I *789:A1 I *D gf180mcu_fd_sc_mcu7t5v0__nand2_1
*I *957:Z O *D gf180mcu_fd_sc_mcu7t5v0__buf_1
*CAP
1 *786:A2 0
2 *787:A1 9.09133e-05
3 *928:I 2.92837e-05
4 *789:A1 2.79978e-05
5 *957:Z 0.00172306
6 *182:39 0.000266441
7 *182:30 0.000507656
8 *182:22 0.00205648
9 *787:A1 *766:A2 0
10 *789:A1 *191:22 0
11 *928:I *191:22 0
12 *182:22 *752:A1 0.0015569
13 *182:22 *760:A2 0.00020108
14 *182:22 *914:I 9.32545e-05
15 *182:22 *939:I 1.34375e-05
16 *182:22 *960:I 0.000530429
17 *182:22 *196:10 0.000103262
18 *182:22 *197:10 6.97607e-05
19 *182:22 *203:8 0.000255714
20 *182:22 *216:14 0.00198737
21 *182:22 *216:20 0.000123777
22 *182:30 *788:A1 0.00020862
23 *182:30 *867:RN 0.000244671
24 *182:30 *191:22 0.000163024
25 *182:30 *216:20 1.3758e-05
26 *757:A2 *182:22 7.83779e-05
27 *760:A1 *182:22 7.24052e-05
28 *786:A3 *182:22 0.000663505
29 *788:A2 *928:I 0.000137776
30 *788:A2 *182:30 3.36949e-05
31 *788:A2 *182:39 1.28529e-05
32 *788:B *182:30 8.55327e-05
33 *789:A2 *789:A1 1.5015e-05
34 *791:A2 *182:22 0.000787074
35 *791:A2 *182:30 0
36 *866:D *182:30 3.27897e-05
37 *866:CLK *182:22 2.23385e-05
38 *866:CLK *182:30 0
39 *872:CLK *182:22 0.000502843
40 *880:CLK *182:22 0.000431543
41 *907:I *182:22 0
42 *926:I *182:22 0
43 *957:I *182:22 5.75752e-06
44 *66:32 *787:A1 0.000396904
45 *66:53 *928:I 4.58601e-06
46 *134:29 *182:22 0.000332876
47 *181:8 *182:39 3.07734e-05
*RES
1 *957:Z *182:22 25.248 
2 *182:22 *182:30 12.04 
3 *182:30 *789:A1 4.728 
4 *182:30 *182:39 1.14 
5 *182:39 *928:I 4.88 
6 *182:39 *787:A1 14.488 
7 *182:22 *786:A2 4.5 
*END

*D_NET *183 0.0048641
*CONN
*I *868:RN I *D gf180mcu_fd_sc_mcu7t5v0__dffrnq_1
*I *930:I I *D gf180mcu_fd_sc_mcu7t5v0__buf_2
*I *869:RN I *D gf180mcu_fd_sc_mcu7t5v0__dffrnq_1
*I *913:Z O *D gf180mcu_fd_sc_mcu7t5v0__dlyb_1
*CAP
1 *868:RN 0.000519544
2 *930:I 0.00039361
3 *869:RN 0.000652984
4 *913:Z 3.71185e-05
5 *183:6 0.000564168
6 *780:A1 *868:RN 7.02402e-05
7 *798:A4 *930:I 0
8 *839:A2 *868:RN 0.00053374
9 *844:A2 *868:RN 0.001007
10 *844:A2 *930:I 9.10657e-05
11 *895:I *868:RN 0.0003619
12 *897:I *868:RN 0.000118712
13 *79:10 *868:RN 3.22641e-05
14 *112:18 *868:RN 0.000129043
15 *132:93 *868:RN 0.000248642
16 *141:10 *868:RN 4.53938e-05
17 *142:10 *869:RN 4.71416e-05
18 *142:10 *183:6 1.15312e-05
*RES
1 *913:Z *183:6 4.728 
2 *183:6 *869:RN 5.336 
3 *183:6 *930:I 16.16 
4 *869:RN *868:RN 25.068 
*END

*D_NET *184 0.00508729
*CONN
*I *853:RN I *D gf180mcu_fd_sc_mcu7t5v0__dffrnq_1
*I *857:RN I *D gf180mcu_fd_sc_mcu7t5v0__dffrnq_1
*I *854:RN I *D gf180mcu_fd_sc_mcu7t5v0__dffrnq_1
*I *929:Z O *D gf180mcu_fd_sc_mcu7t5v0__clkbuf_2
*CAP
1 *853:RN 4.24085e-05
2 *857:RN 0.000428739
3 *854:RN 0.000364261
4 *929:Z 0.000842614
5 *184:10 0.00101124
6 *184:8 0.00110327
7 *184:8 *750:I 6.40487e-05
8 *184:8 *204:12 0.000343983
9 *184:10 *204:12 0.000239414
10 *832:A1 *857:RN 1.2018e-05
11 *832:A2 *857:RN 0.00025069
12 *834:A1 *857:RN 0
13 *838:A2 *184:8 0
14 *842:A1 *184:8 0.000364031
15 *854:D *857:RN 0
16 *854:CLK *184:8 0
17 *940:I *854:RN 0
18 *160:8 *857:RN 2.05767e-05
*RES
1 *929:Z *184:8 16.22 
2 *184:8 *184:10 2.052 
3 *184:10 *854:RN 11.432 
4 *184:10 *857:RN 11.964 
5 *184:8 *853:RN 9.228 
*END

*D_NET *185 0.00565561
*CONN
*I *929:I I *D gf180mcu_fd_sc_mcu7t5v0__clkbuf_2
*I *858:RN I *D gf180mcu_fd_sc_mcu7t5v0__dffrnq_1
*I *855:RN I *D gf180mcu_fd_sc_mcu7t5v0__dffrnq_1
*I *856:RN I *D gf180mcu_fd_sc_mcu7t5v0__dffrnq_1
*I *958:Z O *D gf180mcu_fd_sc_mcu7t5v0__buf_1
*CAP
1 *929:I 0.000148444
2 *858:RN 0
3 *855:RN 0
4 *856:RN 0.000319484
5 *958:Z 0.000388014
6 *185:16 0.000361229
7 *185:12 0.000578204
8 *856:RN *205:12 1.45109e-05
9 *185:12 *859:RN 0.000848846
10 *185:12 *186:12 2.6126e-05
11 phase_state[0] *929:I 0.000134622
12 *841:A1 *185:12 4.97712e-06
13 *842:A1 *856:RN 0.000651408
14 *842:A1 *929:I 2.22758e-05
15 *842:A1 *185:16 0.000197873
16 *842:B *856:RN 0.000167702
17 *842:B *185:12 7.51401e-05
18 *842:B *185:16 0.000220081
19 *159:10 *929:I 0.000192331
20 *162:10 *185:12 5.19077e-05
21 *170:25 *185:12 0
22 *170:32 *185:12 0
23 *174:6 *185:16 1.88647e-06
24 *174:31 *185:12 0.00118316
25 *174:31 *185:16 6.73823e-05
*RES
1 *958:Z *185:12 9.668 
2 *185:12 *185:16 2.28 
3 *185:16 *856:RN 6.704 
4 *185:16 *855:RN 4.5 
5 *185:12 *858:RN 4.5 
6 *856:RN *929:I 10.672 
*END

*D_NET *186 0.00405002
*CONN
*I *860:RN I *D gf180mcu_fd_sc_mcu7t5v0__dffrnq_1
*I *958:I I *D gf180mcu_fd_sc_mcu7t5v0__buf_1
*I *859:RN I *D gf180mcu_fd_sc_mcu7t5v0__dffrnq_1
*I *930:Z O *D gf180mcu_fd_sc_mcu7t5v0__buf_2
*CAP
1 *860:RN 0.000224822
2 *958:I 0
3 *859:RN 0.000162751
4 *930:Z 0.000212055
5 *186:12 0.000185504
6 *186:10 0.000459629
7 *843:A1 *186:10 0.000387765
8 *844:A1 *186:10 3.18954e-05
9 *844:B *186:10 0.000269857
10 *944:I *859:RN 2.6126e-05
11 *944:I *860:RN 0.000476718
12 *944:I *186:12 5.22519e-05
13 *955:I *186:10 0.000451288
14 *162:10 *186:10 8.15645e-05
15 *170:32 *859:RN 4.04114e-05
16 *174:44 *859:RN 5.19077e-05
17 *174:44 *860:RN 6.05076e-05
18 *185:12 *859:RN 0.000848846
19 *185:12 *186:12 2.6126e-05
*RES
1 *930:Z *186:10 16.16 
2 *186:10 *186:12 0.228 
3 *186:12 *859:RN 6.704 
4 *186:12 *958:I 4.5 
5 *186:10 *860:RN 6.552 
*END

*D_NET *187 0.003975
*CONN
*I *933:I I *D gf180mcu_fd_sc_mcu7t5v0__clkbuf_2
*I *932:I I *D gf180mcu_fd_sc_mcu7t5v0__clkbuf_2
*I *866:RN I *D gf180mcu_fd_sc_mcu7t5v0__dffrnq_1
*I *914:Z O *D gf180mcu_fd_sc_mcu7t5v0__dlyb_1
*CAP
1 *933:I 0
2 *932:I 9.70432e-05
3 *866:RN 0.000253023
4 *914:Z 0.00071628
5 *187:27 0.000121831
6 *187:16 0.000994091
7 *866:RN *212:43 0.000135135
8 *932:I *212:12 4.36208e-05
9 *187:16 *767:A1 0.000396112
10 *187:16 *211:26 8.67136e-05
11 *187:16 *217:21 1.11891e-05
12 *187:27 *212:43 5.76373e-06
13 *773:A1 *187:16 2.96621e-05
14 *773:A2 *187:16 0.000172914
15 *773:A4 *187:16 9.75999e-05
16 *875:CLK *187:16 0.000333388
17 *65:14 *866:RN 8.36469e-05
18 *65:14 *187:16 1.53689e-05
19 *66:14 *187:16 0
20 *66:32 *866:RN 2.07594e-05
21 *66:32 *187:16 4.718e-05
22 *132:8 *187:16 5.59256e-05
23 *132:17 *187:16 0
24 *132:33 *187:16 1.3758e-05
25 *134:12 *187:16 0.000221732
26 *134:21 *187:16 2.22657e-05
*RES
1 *914:Z *187:16 19.732 
2 *187:16 *866:RN 6.628 
3 *187:16 *187:27 0.228 
4 *187:27 *932:I 14.184 
5 *187:27 *933:I 4.5 
*END

*D_NET *188 0.00386287
*CONN
*I *879:RN I *D gf180mcu_fd_sc_mcu7t5v0__dffrnq_1
*I *877:RN I *D gf180mcu_fd_sc_mcu7t5v0__dffrnq_1
*I *876:RN I *D gf180mcu_fd_sc_mcu7t5v0__dffrnq_1
*I *931:Z O *D gf180mcu_fd_sc_mcu7t5v0__clkbuf_2
*CAP
1 *879:RN 4.72841e-05
2 *877:RN 0.00015855
3 *876:RN 0.000286238
4 *931:Z 0.000259731
5 *188:12 0.00101859
6 *188:10 0.000880819
7 *188:12 *878:RN 9.61205e-06
8 *819:A1 *876:RN 4.93579e-05
9 *820:B2 *876:RN 0.000182518
10 *820:B2 *188:12 0.000106762
11 *823:A1 *188:10 0.00014967
12 *826:B1 *879:RN 4.27914e-05
13 *826:B1 *188:12 4.61725e-05
14 *827:A2 *188:10 1.80992e-05
15 *828:A2 *188:12 0.000339879
16 *828:A3 *188:10 0.000108742
17 *85:16 *188:10 0
18 *85:22 *188:10 6.03906e-05
19 *106:8 *188:10 1.85312e-05
20 *153:12 *876:RN 7.91349e-05
21 *154:19 *877:RN 0
*RES
1 *931:Z *188:10 15.552 
2 *188:10 *188:12 4.18 
3 *188:12 *876:RN 6.628 
4 *188:12 *877:RN 5.716 
5 *188:10 *879:RN 4.88 
*END

*D_NET *189 0.00614323
*CONN
*I *870:RN I *D gf180mcu_fd_sc_mcu7t5v0__dffrnq_1
*I *913:I I *D gf180mcu_fd_sc_mcu7t5v0__dlyb_1
*I *871:RN I *D gf180mcu_fd_sc_mcu7t5v0__dffrnq_1
*I *932:Z O *D gf180mcu_fd_sc_mcu7t5v0__clkbuf_2
*CAP
1 *870:RN 0.000135944
2 *913:I 0.000155019
3 *871:RN 0
4 *932:Z 0.000721985
5 *189:19 0.000470672
6 *189:10 0.000901694
7 *773:A3 *189:10 7.59985e-05
8 *798:A3 *189:10 0
9 *805:A2 *913:I 0.000248576
10 *806:A1 *913:I 0.000848846
11 *806:A2 *913:I 0.000398787
12 *829:B *189:10 0
13 *846:A2 *870:RN 3.89408e-05
14 *846:A2 *189:19 1.28891e-05
15 *861:CLK *870:RN 0.000626404
16 *861:CLK *913:I 0.000116627
17 *97:6 *913:I 0.000502835
18 *98:12 *870:RN 0.000218463
19 *113:26 *189:10 0.000132326
20 *126:28 *189:10 0.00031512
21 *136:26 *913:I 2.74753e-05
22 *136:33 *913:I 0.000194624
23 *152:37 *189:10 0
*RES
1 *932:Z *189:10 14.168 
2 *189:10 *871:RN 9 
3 *189:10 *189:19 0.988 
4 *189:19 *913:I 13.18 
5 *189:19 *870:RN 11.128 
*END

*D_NET *190 0.00288826
*CONN
*I *917:I I *D gf180mcu_fd_sc_mcu7t5v0__dlyb_1
*I *921:Z O *D gf180mcu_fd_sc_mcu7t5v0__buf_1
*CAP
1 *917:I 0.000995841
2 *921:Z 0.000995841
3 *753:A2 *917:I 0.00040667
4 *891:D *917:I 0.000112962
5 *138:43 *917:I 7.91972e-05
6 *176:14 *917:I 0.000285856
7 *177:18 *917:I 1.18942e-05
*RES
1 *921:Z *917:I 26.512 
*END

*D_NET *191 0.00681876
*CONN
*I *867:RN I *D gf180mcu_fd_sc_mcu7t5v0__dffrnq_1
*I *931:I I *D gf180mcu_fd_sc_mcu7t5v0__clkbuf_2
*I *878:RN I *D gf180mcu_fd_sc_mcu7t5v0__dffrnq_1
*I *933:Z O *D gf180mcu_fd_sc_mcu7t5v0__clkbuf_2
*CAP
1 *867:RN 0.000398758
2 *931:I 0
3 *878:RN 0.000269402
4 *933:Z 0.000255926
5 *191:22 0.000817032
6 *191:12 0.00120231
7 *867:RN *766:A1 0
8 *867:RN *216:20 0.000170536
9 *867:RN *217:8 2.57058e-06
10 *191:12 *766:A2 0.000523049
11 *773:A4 *191:12 3.3525e-05
12 *788:A2 *867:RN 2.11524e-05
13 *788:B *191:22 2.68021e-05
14 *789:A1 *191:22 0
15 *823:A1 *878:RN 3.08902e-05
16 *823:A1 *191:22 0.00032464
17 *823:A2 *878:RN 0.000116636
18 *823:A2 *191:22 3.00299e-05
19 *825:A1 *878:RN 6.0086e-05
20 *825:A4 *878:RN 5.87561e-06
21 *826:B1 *878:RN 2.6126e-05
22 *826:B1 *191:22 0
23 *827:A2 *878:RN 0.000333388
24 *828:A2 *878:RN 6.9258e-05
25 *828:A3 *878:RN 0.000317373
26 *866:D *191:12 0.00021548
27 *866:D *191:22 0.000407549
28 *928:I *191:22 0
29 *65:8 *191:12 0.000205933
30 *66:53 *191:22 0
31 *85:10 *191:22 0.000317503
32 *85:16 *191:22 2.30518e-05
33 *85:22 *191:22 9.87535e-06
34 *156:10 *878:RN 0.000171325
35 *181:8 *191:22 1.53689e-05
36 *182:30 *867:RN 0.000244671
37 *182:30 *191:22 0.000163024
38 *188:12 *878:RN 9.61205e-06
*RES
1 *933:Z *191:12 12.116 
2 *191:12 *191:22 9.364 
3 *191:22 *878:RN 16.312 
4 *191:22 *931:I 4.5 
5 *191:12 *867:RN 12.116 
*END

*D_NET *192 0.00341733
*CONN
*I *935:I I *D gf180mcu_fd_sc_mcu7t5v0__buf_2
*I *936:I I *D gf180mcu_fd_sc_mcu7t5v0__buf_2
*I *893:RN I *D gf180mcu_fd_sc_mcu7t5v0__dffrnq_1
*I *884:RN I *D gf180mcu_fd_sc_mcu7t5v0__dffrnq_1
*I *915:Z O *D gf180mcu_fd_sc_mcu7t5v0__dlyb_1
*CAP
1 *935:I 7.46147e-05
2 *936:I 0.000212176
3 *893:RN 0.000142918
4 *884:RN 0.000151644
5 *915:Z 2.02077e-05
6 *192:34 0.000459649
7 *192:12 0.000497901
8 *192:6 0.000396404
9 *893:RN *765:A2 0
10 *893:RN *201:21 0.000619258
11 *935:I *195:10 1.46159e-05
12 *936:I *762:A1 0
13 *936:I *765:A2 0
14 *936:I *195:10 5.21212e-05
15 *936:I *201:53 0
16 *192:6 *765:A2 1.52768e-05
17 *192:6 *201:21 1.15275e-05
18 *192:12 *765:A2 5.48455e-05
19 *192:12 *201:21 4.52293e-05
20 *192:12 *203:42 0
21 *753:A2 *884:RN 0
22 *753:A2 *935:I 0.000158886
23 *753:A2 *192:12 0
24 *753:A2 *192:34 0.000407104
25 *764:A2 *884:RN 8.29507e-05
26 *884:CLK *935:I 0
*RES
1 *915:Z *192:6 4.728 
2 *192:6 *192:12 6.02 
3 *192:12 *884:RN 10.14 
4 *192:12 *893:RN 10.596 
5 *192:6 *192:34 6.552 
6 *192:34 *936:I 10.14 
7 *192:34 *935:I 9.836 
*END

*D_NET *193 0.00368742
*CONN
*I *863:RN I *D gf180mcu_fd_sc_mcu7t5v0__dffrnq_1
*I *864:RN I *D gf180mcu_fd_sc_mcu7t5v0__dffrnq_1
*I *865:RN I *D gf180mcu_fd_sc_mcu7t5v0__dffrnq_1
*I *934:Z O *D gf180mcu_fd_sc_mcu7t5v0__clkbuf_2
*CAP
1 *863:RN 0.000166868
2 *864:RN 0.000447774
3 *865:RN 0.000620434
4 *934:Z 0.000339527
5 *863:RN *862:RN 2.07594e-05
6 *865:RN *882:RN 0
7 *761:A2 *864:RN 5.65687e-05
8 *761:A2 *865:RN 0.00070427
9 *762:A2 *865:RN 0.00026286
10 *763:A2 *865:RN 0.000247065
11 *781:A1 *863:RN 0.00020108
12 *781:A1 *864:RN 0.000216231
13 *782:B *863:RN 0.000141897
14 *784:A1 *864:RN 0
15 *784:A1 *865:RN 0
16 *784:A2 *863:RN 0
17 *784:A2 *864:RN 0
18 *948:I *863:RN 0.000239669
19 *949:I *864:RN 2.24173e-05
*RES
1 *934:Z *865:RN 12.648 
2 *865:RN *864:RN 11.052 
3 *864:RN *863:RN 11.052 
*END

*D_NET *194 0.00510812
*CONN
*I *874:RN I *D gf180mcu_fd_sc_mcu7t5v0__dffrnq_1
*I *875:RN I *D gf180mcu_fd_sc_mcu7t5v0__dffrnq_1
*I *885:RN I *D gf180mcu_fd_sc_mcu7t5v0__dffrnq_1
*I *935:Z O *D gf180mcu_fd_sc_mcu7t5v0__buf_2
*CAP
1 *874:RN 0
2 *875:RN 0.000257831
3 *885:RN 0.000730749
4 *935:Z 0.000584097
5 *194:26 0.000404482
6 *885:RN *763:A1 1.44832e-05
7 *761:A1 *885:RN 0.000270837
8 *763:A2 *885:RN 0.000154348
9 *783:A1 *875:RN 6.44359e-05
10 *783:A1 *885:RN 0
11 *783:A1 *194:26 9.1336e-05
12 *783:A2 *875:RN 0.000239669
13 *783:A2 *194:26 0.000244438
14 *785:A2 *885:RN 0.000139324
15 *815:A2 *885:RN 4.88658e-05
16 *830:B *875:RN 1.43468e-05
17 *881:D *885:RN 0.000493324
18 *882:D *885:RN 4.52299e-05
19 *883:D *885:RN 0
20 *883:CLK *885:RN 2.64851e-05
21 *884:D *885:RN 0.000494777
22 *77:8 *875:RN 1.15244e-05
23 *140:6 *885:RN 0.000255714
24 *140:39 *885:RN 0.000111659
25 *140:50 *885:RN 0.000410165
*RES
1 *935:Z *885:RN 25.144 
2 *885:RN *194:26 6.172 
3 *194:26 *875:RN 6.704 
4 *194:26 *874:RN 4.5 
*END

*D_NET *195 0.00307507
*CONN
*I *934:I I *D gf180mcu_fd_sc_mcu7t5v0__clkbuf_2
*I *882:RN I *D gf180mcu_fd_sc_mcu7t5v0__dffrnq_1
*I *881:RN I *D gf180mcu_fd_sc_mcu7t5v0__dffrnq_1
*I *936:Z O *D gf180mcu_fd_sc_mcu7t5v0__buf_2
*CAP
1 *934:I 0.000140148
2 *882:RN 0.000269979
3 *881:RN 0
4 *936:Z 0.00079869
5 *195:19 0.000549566
6 *195:10 0.000938129
7 *882:RN *953:I 9.88736e-06
8 *934:I *883:RN 6.57222e-06
9 *934:I *959:I 0
10 *195:10 *915:I 0
11 *195:10 *959:I 0
12 *195:19 *959:I 0
13 *753:A2 *195:10 0
14 *762:A2 *882:RN 0
15 *762:A2 *934:I 0
16 *762:A2 *195:10 0
17 *762:A2 *195:19 0
18 *865:RN *882:RN 0
19 *881:D *195:10 9.81532e-05
20 *884:CLK *195:10 4.78829e-05
21 *935:I *195:10 1.46159e-05
22 *936:I *195:10 5.21212e-05
23 *140:50 *195:10 0.000149325
*RES
1 *936:Z *195:10 14.624 
2 *195:10 *881:RN 9 
3 *195:10 *195:19 0.988 
4 *195:19 *882:RN 10.596 
5 *195:19 *934:I 9.836 
*END

*D_NET *196 0.00333422
*CONN
*I *939:I I *D gf180mcu_fd_sc_mcu7t5v0__clkbuf_1
*I *880:RN I *D gf180mcu_fd_sc_mcu7t5v0__dffrnq_1
*I *892:RN I *D gf180mcu_fd_sc_mcu7t5v0__dffrnq_1
*I *916:Z O *D gf180mcu_fd_sc_mcu7t5v0__dlyb_1
*CAP
1 *939:I 0.000185779
2 *880:RN 0.000165272
3 *892:RN 7.88927e-05
4 *916:Z 0
5 *196:10 0.00060096
6 *196:4 0.000542575
7 *880:RN *756:A2 0
8 *939:I *914:I 0.000264748
9 *939:I *203:8 3.56141e-05
10 *753:A2 *880:RN 0.000179597
11 *753:A2 *196:10 2.4706e-05
12 *764:A2 *880:RN 0
13 *880:D *939:I 0.000107932
14 *880:D *196:10 0.00010005
15 *880:CLK *196:10 0.000141897
16 *176:38 *892:RN 8.18282e-05
17 *176:38 *196:10 0.00070767
18 *182:22 *939:I 1.34375e-05
19 *182:22 *196:10 0.000103262
*RES
1 *916:Z *196:4 4.5 
2 *196:4 *196:10 8.3 
3 *196:10 *892:RN 9.532 
4 *196:10 *880:RN 10.748 
5 *196:4 *939:I 6.324 
*END

*D_NET *197 0.00487697
*CONN
*I *873:RN I *D gf180mcu_fd_sc_mcu7t5v0__dffrnq_1
*I *872:RN I *D gf180mcu_fd_sc_mcu7t5v0__dffrnq_1
*I *889:RN I *D gf180mcu_fd_sc_mcu7t5v0__dffrnq_1
*I *937:Z O *D gf180mcu_fd_sc_mcu7t5v0__clkbuf_2
*CAP
1 *873:RN 0
2 *872:RN 0.000150782
3 *889:RN 0
4 *937:Z 0.000716556
5 *197:23 0.000598156
6 *197:10 0.00116393
7 *197:10 *937:I 5.76373e-06
8 *197:10 *216:10 0.00021548
9 *197:23 *216:10 0.000426387
10 *760:A1 *197:10 7.24052e-05
11 *774:A2 *872:RN 0.000201948
12 *810:A2 *197:23 8.10706e-06
13 *812:A1 *197:23 3.49389e-05
14 *812:A2 *872:RN 0
15 *813:A2 *197:23 0.000571483
16 *873:CLK *197:10 0
17 *875:CLK *872:RN 0.000363988
18 *875:CLK *197:23 0.000256521
19 *889:D *197:10 0
20 *145:17 *872:RN 0
21 *146:8 *872:RN 1.81888e-05
22 *146:8 *197:23 2.57058e-06
23 *182:22 *197:10 6.97607e-05
*RES
1 *937:Z *197:10 13.712 
2 *197:10 *889:RN 9 
3 *197:10 *197:23 8.908 
4 *197:23 *872:RN 6.552 
5 *197:23 *873:RN 4.5 
*END

*D_NET *198 0.00241698
*CONN
*I *937:I I *D gf180mcu_fd_sc_mcu7t5v0__clkbuf_2
*I *886:RN I *D gf180mcu_fd_sc_mcu7t5v0__dffrnq_1
*I *888:RN I *D gf180mcu_fd_sc_mcu7t5v0__dffrnq_1
*I *887:RN I *D gf180mcu_fd_sc_mcu7t5v0__dffrnq_1
*I *938:Z O *D gf180mcu_fd_sc_mcu7t5v0__clkbuf_2
*CAP
1 *937:I 0.00023056
2 *886:RN 0.000173694
3 *888:RN 0.000437058
4 *887:RN 0.000186354
5 *938:Z 0
6 *198:6 0.000509445
7 *198:4 0.000290287
8 *886:RN *890:RN 4.58601e-06
9 *886:RN *891:RN 2.6126e-05
10 *886:RN *938:I 5.29128e-05
11 *887:RN *759:A2 3.08902e-05
12 *888:RN *758:A2 0
13 *937:I *760:A2 0
14 *198:6 *938:I 1.72912e-05
15 *177:47 *886:RN 2.11766e-05
16 *177:47 *198:6 4.2318e-06
17 *177:66 *887:RN 0.000299729
18 *177:66 *198:6 0.000126873
19 *197:10 *937:I 5.76373e-06
*RES
1 *938:Z *198:4 4.5 
2 *198:4 *198:6 0.988 
3 *198:6 *887:RN 6.324 
4 *198:6 *888:RN 14.944 
5 *198:4 *886:RN 5.64 
6 *888:RN *937:I 10.444 
*END

*D_NET *199 0.0031074
*CONN
*I *938:I I *D gf180mcu_fd_sc_mcu7t5v0__clkbuf_2
*I *891:RN I *D gf180mcu_fd_sc_mcu7t5v0__dffrnq_1
*I *890:RN I *D gf180mcu_fd_sc_mcu7t5v0__dffrnq_1
*I *939:Z O *D gf180mcu_fd_sc_mcu7t5v0__clkbuf_1
*CAP
1 *938:I 0.000181808
2 *891:RN 0.000368305
3 *890:RN 0.000133021
4 *939:Z 0.000191525
5 *199:10 0.000564582
6 *199:8 0.00043659
7 *890:RN *754:A2 0
8 *891:RN *755:A2 2.57058e-06
9 *938:I *758:A2 8.18373e-05
10 *199:8 *916:I 9.17802e-05
11 *199:8 *203:19 3.94333e-05
12 *199:10 *754:A2 0
13 *886:RN *890:RN 4.58601e-06
14 *886:RN *891:RN 2.6126e-05
15 *886:RN *938:I 5.29128e-05
16 *907:I *938:I 0
17 *3:22 *890:RN 0.000134113
18 *3:22 *199:8 0.000585069
19 *3:22 *199:10 0.00012053
20 *138:32 *891:RN 0
21 *177:47 *890:RN 7.53241e-05
22 *177:47 *891:RN 0
23 *198:6 *938:I 1.72912e-05
*RES
1 *939:Z *199:8 11.964 
2 *199:8 *199:10 0.684 
3 *199:10 *890:RN 10.368 
4 *199:10 *891:RN 11.356 
5 *199:8 *938:I 10.292 
*END

*D_NET *200 0.00278118
*CONN
*I *960:I I *D gf180mcu_fd_sc_mcu7t5v0__buf_1
*I *917:Z O *D gf180mcu_fd_sc_mcu7t5v0__dlyb_1
*CAP
1 *960:I 0.000371311
2 *917:Z 0.000371311
3 *960:I *755:A2 0.000333388
4 *753:A2 *960:I 0.000841569
5 *892:D *960:I 8.73421e-05
6 *138:32 *960:I 0
7 *176:14 *960:I 6.14579e-05
8 *176:38 *960:I 0.000184374
9 *182:22 *960:I 0.000530429
*RES
1 *917:Z *960:I 23.168 
*END

*D_NET *201 0.0130665
*CONN
*I *765:A1 I *D gf180mcu_fd_sc_mcu7t5v0__and2_1
*I *762:A1 I *D gf180mcu_fd_sc_mcu7t5v0__and2_1
*I *763:A1 I *D gf180mcu_fd_sc_mcu7t5v0__and2_1
*I *764:A1 I *D gf180mcu_fd_sc_mcu7t5v0__and2_1
*I *912:I I *D gf180mcu_fd_sc_mcu7t5v0__dlyb_1
*I *922:Z O *D gf180mcu_fd_sc_mcu7t5v0__buf_1
*CAP
1 *765:A1 0
2 *762:A1 0.00067548
3 *763:A1 0.000626137
4 *764:A1 6.17852e-05
5 *912:I 0
6 *922:Z 0.00022406
7 *201:53 0.000862191
8 *201:21 0.00112799
9 *201:17 0.00164075
10 *201:8 0.00123803
11 *763:A1 *959:I 2.15998e-06
12 *764:A1 *211:26 2.33043e-05
13 *201:21 *765:A2 0
14 *201:21 *954:I 8.73421e-05
15 *201:21 *211:26 2.9378e-06
16 *753:A2 *762:A1 0.000146051
17 *753:A2 *201:17 0.000208403
18 *753:A2 *201:53 4.37925e-05
19 *757:A2 *201:8 0.000921092
20 *757:A2 *201:17 0.00142676
21 *762:A2 *762:A1 0.000158809
22 *763:A2 *763:A1 0.00017089
23 *764:A2 *764:A1 0.000147313
24 *764:A2 *201:21 0.000561306
25 *785:A2 *763:A1 0
26 *815:A1 *764:A1 0
27 *815:A2 *763:A1 0
28 *881:D *762:A1 0.00083243
29 *882:D *763:A1 0.000379274
30 *885:RN *763:A1 1.44832e-05
31 *893:RN *201:21 0.000619258
32 *911:I *201:8 0.000120538
33 *936:I *762:A1 0
34 *936:I *201:53 0
35 *132:123 *763:A1 0.000190808
36 *140:10 *763:A1 0.000246374
37 *140:16 *763:A1 0.00020764
38 *177:18 *201:8 4.23955e-05
39 *192:6 *201:21 1.15275e-05
40 *192:12 *201:21 4.52293e-05
*RES
1 *922:Z *201:8 12.116 
2 *201:8 *912:I 9 
3 *201:8 *201:17 9.044 
4 *201:17 *201:21 8.68 
5 *201:21 *764:A1 5.108 
6 *201:21 *763:A1 19.732 
7 *201:17 *201:53 6.02 
8 *201:53 *762:A1 19.428 
9 *201:53 *765:A1 4.5 
*END

*D_NET *202 0.00757227
*CONN
*I *861:RN I *D gf180mcu_fd_sc_mcu7t5v0__dffrnq_1
*I *883:RN I *D gf180mcu_fd_sc_mcu7t5v0__dffrnq_1
*I *862:RN I *D gf180mcu_fd_sc_mcu7t5v0__dffrnq_1
*I *959:Z O *D gf180mcu_fd_sc_mcu7t5v0__clkbuf_2
*CAP
1 *861:RN 0.000637105
2 *883:RN 0.000607354
3 *862:RN 0.00168077
4 *959:Z 0
5 *202:4 0.00165102
6 *883:RN *953:I 5.1289e-05
7 votes_in_phase[3] *861:RN 1.45415e-05
8 votes_out_phase[0] *862:RN 4.0272e-05
9 votes_out_phase[1] *862:RN 0.000202968
10 votes_out_phase[2] *862:RN 9.26705e-05
11 votes_out_phase[3] *883:RN 0.000164871
12 *762:A2 *883:RN 9.00369e-05
13 *781:A1 *862:RN 0
14 *851:A2 *861:RN 0
15 *863:RN *862:RN 2.07594e-05
16 *918:I *883:RN 2.6126e-05
17 *934:I *883:RN 6.57222e-06
18 *947:I *861:RN 2.6126e-05
19 *947:I *862:RN 0.000564624
20 *948:I *862:RN 0.000119234
21 *949:I *862:RN 0.000386685
22 *950:I *862:RN 0.000734813
23 *950:I *883:RN 0.000222453
24 *164:10 *861:RN 0
25 *174:55 *861:RN 0.000231978
*RES
1 *959:Z *202:4 4.5 
2 *202:4 *862:RN 14 
3 *202:4 *883:RN 18.212 
4 *862:RN *861:RN 13.18 
*END

*D_NET *203 0.0136059
*CONN
*I *959:I I *D gf180mcu_fd_sc_mcu7t5v0__clkbuf_2
*I *915:I I *D gf180mcu_fd_sc_mcu7t5v0__dlyb_1
*I *914:I I *D gf180mcu_fd_sc_mcu7t5v0__dlyb_1
*I *916:I I *D gf180mcu_fd_sc_mcu7t5v0__dlyb_1
*I *960:Z O *D gf180mcu_fd_sc_mcu7t5v0__buf_1
*CAP
1 *959:I 0.000675469
2 *915:I 0.000276487
3 *914:I 0.00116844
4 *916:I 0.000139997
5 *960:Z 5.81434e-05
6 *203:42 0.00167881
7 *203:19 0.00202428
8 *203:8 0.000327127
9 *914:I *752:A1 0.000218898
10 *914:I *216:14 0.00021169
11 *915:I *765:A2 0.000140403
12 *203:42 *756:A2 2.70198e-05
13 *763:A1 *959:I 2.15998e-06
14 *763:A2 *959:I 0.000937855
15 *764:A2 *203:42 7.18979e-05
16 *810:A1 *914:I 3.72807e-05
17 *810:A2 *914:I 8.73298e-05
18 *872:D *914:I 0.000140885
19 *873:D *914:I 0.000141897
20 *880:D *914:I 0.000966289
21 *880:CLK *916:I 0
22 *884:D *915:I 8.17308e-05
23 *884:CLK *959:I 0
24 *889:D *914:I 0.000157987
25 *934:I *959:I 0
26 *939:I *914:I 0.000264748
27 *939:I *203:8 3.56141e-05
28 *3:22 *914:I 0.000780894
29 *3:22 *203:19 0
30 *3:22 *203:42 0
31 *140:10 *959:I 0.000864184
32 *140:10 *203:42 0.000285856
33 *140:16 *203:42 0.00132233
34 *140:50 *959:I 0
35 *182:22 *914:I 9.32545e-05
36 *182:22 *203:8 0.000255714
37 *192:12 *203:42 0
38 *195:10 *915:I 0
39 *195:10 *959:I 0
40 *195:19 *959:I 0
41 *199:8 *916:I 9.17802e-05
42 *199:8 *203:19 3.94333e-05
*RES
1 *960:Z *203:8 9.684 
2 *203:8 *916:I 10.14 
3 *203:8 *203:19 0.988 
4 *203:19 *914:I 21.692 
5 *203:19 *203:42 6.764 
6 *203:42 *915:I 11.204 
7 *203:42 *959:I 16.372 
*END

*D_NET *204 0.00243421
*CONN
*I *750:I I *D gf180mcu_fd_sc_mcu7t5v0__clkinv_1
*I *951:I I *D gf180mcu_fd_sc_mcu7t5v0__buf_2
*I *853:Q O *D gf180mcu_fd_sc_mcu7t5v0__dffrnq_1
*CAP
1 *750:I 0.000213922
2 *951:I 2.3925e-05
3 *853:Q 0.000282033
4 *204:12 0.00051988
5 *838:A2 *750:I 0.000412903
6 *838:A3 *951:I 8.55242e-05
7 *838:A3 *204:12 0.000248576
8 *184:8 *750:I 6.40487e-05
9 *184:8 *204:12 0.000343983
10 *184:10 *204:12 0.000239414
*RES
1 *853:Q *204:12 16.996 
2 *204:12 *951:I 4.728 
3 *204:12 *750:I 15.4 
*END

*D_NET *205 0.00315483
*CONN
*I *952:I I *D gf180mcu_fd_sc_mcu7t5v0__buf_2
*I *836:A1 I *D gf180mcu_fd_sc_mcu7t5v0__nor2_1
*I *855:Q O *D gf180mcu_fd_sc_mcu7t5v0__dffrnq_1
*CAP
1 *952:I 0
2 *836:A1 0.000193338
3 *855:Q 0.00100179
4 *205:12 0.00119513
5 *837:A2 *205:12 0
6 *837:A3 *836:A1 4.50449e-05
7 *837:A3 *205:12 0
8 *838:A2 *836:A1 0.000242452
9 *842:A1 *205:12 0
10 *842:B *205:12 9.4764e-05
11 *856:RN *205:12 1.45109e-05
12 *942:I *205:12 0.000129732
13 *170:25 *205:12 0.000238068
*RES
1 *855:Q *205:12 19.58 
2 *205:12 *836:A1 5.944 
3 *205:12 *952:I 4.5 
*END

*D_NET *206 0.000774861
*CONN
*I *953:I I *D gf180mcu_fd_sc_mcu7t5v0__buf_2
*I *881:Q O *D gf180mcu_fd_sc_mcu7t5v0__dffrnq_1
*CAP
1 *953:I 0.000326989
2 *881:Q 0.000326989
3 *762:A2 *953:I 5.97076e-05
4 *882:RN *953:I 9.88736e-06
5 *883:RN *953:I 5.1289e-05
*RES
1 *881:Q *953:I 11.128 
*END

*D_NET *207 0.000434971
*CONN
*I *954:I I *D gf180mcu_fd_sc_mcu7t5v0__buf_2
*I *880:Q O *D gf180mcu_fd_sc_mcu7t5v0__dffrnq_1
*CAP
1 *954:I 0.000173814
2 *880:Q 0.000173814
3 *201:21 *954:I 8.73421e-05
*RES
1 *880:Q *954:I 10.216 
*END

*D_NET *208 0.00192028
*CONN
*I *754:A2 I *D gf180mcu_fd_sc_mcu7t5v0__and2_1
*I *890:Q O *D gf180mcu_fd_sc_mcu7t5v0__dffrnq_1
*CAP
1 *754:A2 0.000750536
2 *890:Q 0.000750536
3 *890:RN *754:A2 0
4 *890:CLK *754:A2 9.27253e-05
5 *891:D *754:A2 5.13352e-06
6 *3:22 *754:A2 0
7 *138:43 *754:A2 0.000321346
8 *199:10 *754:A2 0
*RES
1 *890:Q *754:A2 23.928 
*END

*D_NET *209 0.00105288
*CONN
*I *755:A2 I *D gf180mcu_fd_sc_mcu7t5v0__and2_1
*I *891:Q O *D gf180mcu_fd_sc_mcu7t5v0__dffrnq_1
*CAP
1 *755:A2 0.000171295
2 *891:Q 0.000171295
3 *891:RN *755:A2 2.57058e-06
4 *892:D *755:A2 0
5 *960:I *755:A2 0.000333388
6 *176:14 *755:A2 0.00020862
7 *176:18 *755:A2 1.3758e-05
8 *176:38 *755:A2 0.000151957
*RES
1 *891:Q *755:A2 19.672 
*END

*D_NET *210 0.00107974
*CONN
*I *756:A2 I *D gf180mcu_fd_sc_mcu7t5v0__and2_1
*I *892:Q O *D gf180mcu_fd_sc_mcu7t5v0__dffrnq_1
*CAP
1 *756:A2 0.000289716
2 *892:Q 0.000289716
3 *880:RN *756:A2 0
4 *893:D *756:A2 0.000139333
5 *140:16 *756:A2 0
6 *176:38 *756:A2 0.000333958
7 *203:42 *756:A2 2.70198e-05
*RES
1 *892:Q *756:A2 20.736 
*END

*D_NET *211 0.0103212
*CONN
*I *765:A2 I *D gf180mcu_fd_sc_mcu7t5v0__and2_1
*I *767:A2 I *D gf180mcu_fd_sc_mcu7t5v0__nand2_2
*I *766:A2 I *D gf180mcu_fd_sc_mcu7t5v0__and2_1
*I *893:Q O *D gf180mcu_fd_sc_mcu7t5v0__dffrnq_1
*CAP
1 *765:A2 0.000565563
2 *767:A2 0
3 *766:A2 0.00085355
4 *893:Q 0
5 *211:26 0.00252347
6 *211:4 0.00223548
7 *211:26 *775:A2 2.22758e-05
8 *764:A1 *211:26 2.33043e-05
9 *774:A2 *211:26 0
10 *775:A4 *211:26 0.000194624
11 *776:A1 *211:26 2.23385e-05
12 *776:A2 *211:26 9.26705e-05
13 *783:A2 *211:26 0.000286358
14 *787:A1 *766:A2 0
15 *809:A2 *211:26 0.000855992
16 *814:A1 *211:26 0.000441063
17 *815:A1 *211:26 0.000209048
18 *830:A1 *211:26 7.32274e-05
19 *830:C *211:26 0
20 *850:A2 *211:26 7.53241e-05
21 *874:D *211:26 8.06016e-05
22 *875:D *211:26 0.000293899
23 *885:D *211:26 0
24 *893:RN *765:A2 0
25 *901:I *211:26 1.42815e-05
26 *915:I *765:A2 0.000140403
27 *936:I *765:A2 0
28 *66:12 *211:26 0.000174868
29 *66:14 *211:26 4.58601e-06
30 *74:18 *211:26 0
31 *113:26 *211:26 0
32 *132:123 *211:26 0
33 *132:155 *211:26 4.32699e-05
34 *132:160 *211:26 6.79484e-05
35 *175:27 *766:A2 0.000160736
36 *175:63 *211:26 0.000183516
37 *187:16 *211:26 8.67136e-05
38 *191:12 *766:A2 0.000523049
39 *192:6 *765:A2 1.52768e-05
40 *192:12 *765:A2 5.48455e-05
41 *201:21 *765:A2 0
42 *201:21 *211:26 2.9378e-06
*RES
1 *893:Q *211:4 4.5 
2 *211:4 *211:26 20.004 
3 *211:26 *766:A2 23.928 
4 *211:26 *767:A2 9 
5 *211:4 *765:A2 8.224 
*END

*D_NET *212 0.00788531
*CONN
*I *793:A2 I *D gf180mcu_fd_sc_mcu7t5v0__nand4_1
*I *787:A2 I *D gf180mcu_fd_sc_mcu7t5v0__nand2_1
*I *792:A2 I *D gf180mcu_fd_sc_mcu7t5v0__nand3_1
*I *775:A2 I *D gf180mcu_fd_sc_mcu7t5v0__nor4_4
*I *772:A2 I *D gf180mcu_fd_sc_mcu7t5v0__nor3_2
*I *747:I I *D gf180mcu_fd_sc_mcu7t5v0__clkinv_1
*I *866:Q O *D gf180mcu_fd_sc_mcu7t5v0__dffrnq_1
*CAP
1 *793:A2 0.000241594
2 *787:A2 0.000197575
3 *792:A2 0.000119263
4 *775:A2 0.000315521
5 *772:A2 0
6 *747:I 0
7 *866:Q 0
8 *212:54 0.000439169
9 *212:43 0.000355969
10 *212:19 0.000467434
11 *212:12 0.000545333
12 *212:4 0.000630126
13 *773:A3 *212:19 0.000822659
14 *777:A2 *775:A2 9.88736e-06
15 *797:A1 *787:A2 6.31406e-05
16 *797:A1 *792:A2 4.33784e-05
17 *797:A1 *793:A2 0.00012655
18 *797:A1 *212:43 5.84133e-05
19 *797:A2 *787:A2 6.87363e-05
20 *797:A2 *793:A2 8.93281e-05
21 *798:A3 *212:19 6.15433e-05
22 *798:A4 *793:A2 2.18346e-05
23 *798:A4 *212:12 0
24 *800:A2 *793:A2 2.20428e-05
25 *805:A2 *775:A2 0.000324233
26 *807:A1 *775:A2 2.4706e-05
27 *829:B *212:12 0.000100944
28 *840:A2 *787:A2 4.62289e-05
29 *866:RN *212:43 0.000135135
30 *870:D *775:A2 0.000416178
31 *932:I *212:12 4.36208e-05
32 *65:14 *787:A2 6.03838e-05
33 *65:14 *792:A2 0
34 *65:14 *212:43 0
35 *65:20 *787:A2 5.07376e-05
36 *65:40 *787:A2 5.87975e-05
37 *66:14 *775:A2 1.65795e-06
38 *66:32 *787:A2 7.12947e-05
39 *66:32 *212:43 8.96875e-05
40 *94:12 *792:A2 0.000106036
41 *94:12 *212:43 6.26869e-05
42 *112:18 *793:A2 0.000241516
43 *113:26 *775:A2 0.000231805
44 *113:26 *212:12 0
45 *113:26 *212:19 0.000154876
46 *113:26 *212:43 7.6798e-06
47 *126:20 *775:A2 0.000543595
48 *126:28 *793:A2 3.87924e-05
49 *126:28 *212:12 1.15275e-05
50 *126:28 *212:19 5.76373e-06
51 *132:78 *212:12 2.79387e-05
52 *132:78 *212:19 2.49779e-05
53 *141:10 *793:A2 2.6126e-05
54 *141:19 *793:A2 1.97747e-05
55 *141:36 *793:A2 4.06416e-05
56 *142:16 *212:12 0.000181264
57 *152:22 *775:A2 9.17202e-06
58 *187:27 *212:43 5.76373e-06
59 *211:26 *775:A2 2.22758e-05
*RES
1 *866:Q *212:4 4.5 
2 *212:4 *212:12 11.736 
3 *212:12 *747:I 4.5 
4 *212:12 *212:19 2.356 
5 *212:19 *772:A2 4.5 
6 *212:19 *775:A2 17.984 
7 *212:4 *212:43 2.128 
8 *212:43 *792:A2 5.412 
9 *212:43 *212:54 4.5 
10 *212:54 *787:A2 11.128 
11 *212:54 *793:A2 11.28 
*END

*D_NET *213 0.00134628
*CONN
*I *758:A2 I *D gf180mcu_fd_sc_mcu7t5v0__and2_1
*I *886:Q O *D gf180mcu_fd_sc_mcu7t5v0__dffrnq_1
*CAP
1 *758:A2 0.000325058
2 *886:Q 0.000325058
3 *758:A1 *758:A2 0.000158869
4 *888:RN *758:A2 0
5 *907:I *758:A2 2.40935e-05
6 *938:I *758:A2 8.18373e-05
7 *3:22 *758:A2 0.000302028
8 *137:14 *758:A2 0
9 *177:66 *758:A2 0.000129342
*RES
1 *886:Q *758:A2 21.648 
*END

*D_NET *214 0.00137029
*CONN
*I *759:A2 I *D gf180mcu_fd_sc_mcu7t5v0__and2_1
*I *887:Q O *D gf180mcu_fd_sc_mcu7t5v0__dffrnq_1
*CAP
1 *759:A2 0.000347004
2 *887:Q 0.000347004
3 *759:A1 *759:A2 0.000515489
4 *887:RN *759:A2 3.08902e-05
5 *888:D *759:A2 5.3266e-05
6 *137:10 *759:A2 2.17428e-05
7 *177:66 *759:A2 5.48978e-05
*RES
1 *887:Q *759:A2 12.344 
*END

*D_NET *215 0.00055445
*CONN
*I *760:A2 I *D gf180mcu_fd_sc_mcu7t5v0__and2_1
*I *888:Q O *D gf180mcu_fd_sc_mcu7t5v0__dffrnq_1
*CAP
1 *760:A2 0.000176685
2 *888:Q 0.000176685
3 *937:I *760:A2 0
4 *182:22 *760:A2 0.00020108
*RES
1 *888:Q *760:A2 10.368 
*END

*D_NET *216 0.00910796
*CONN
*I *752:A1 I *D gf180mcu_fd_sc_mcu7t5v0__and2_1
*I *790:A1 I *D gf180mcu_fd_sc_mcu7t5v0__nor2_1
*I *786:A1 I *D gf180mcu_fd_sc_mcu7t5v0__nand3_1
*I *788:A1 I *D gf180mcu_fd_sc_mcu7t5v0__oai21_1
*I *889:Q O *D gf180mcu_fd_sc_mcu7t5v0__dffrnq_1
*CAP
1 *752:A1 0.000187757
2 *790:A1 0
3 *786:A1 0
4 *788:A1 6.74443e-05
5 *889:Q 0.000141051
6 *216:20 0.000367462
7 *216:14 0.000600554
8 *216:10 0.000629344
9 *216:14 *790:A2 3.91978e-05
10 *216:14 *217:8 0
11 *216:20 *217:8 0
12 *786:A3 *216:20 1.44832e-05
13 *791:A2 *216:14 0.000123561
14 *791:A2 *216:20 0.000551409
15 *810:A2 *216:10 4.72461e-05
16 *866:D *788:A1 0.00017887
17 *867:RN *216:20 0.000170536
18 *872:D *216:14 0.000149579
19 *873:D *216:14 0.00032464
20 *889:D *752:A1 0.000551947
21 *894:I *216:14 0
22 *914:I *752:A1 0.000218898
23 *914:I *216:14 0.00021169
24 *3:22 *216:14 0
25 *182:22 *752:A1 0.0015569
26 *182:22 *216:14 0.00198737
27 *182:22 *216:20 0.000123777
28 *182:30 *788:A1 0.00020862
29 *182:30 *216:20 1.3758e-05
30 *197:10 *216:10 0.00021548
31 *197:23 *216:10 0.000426387
*RES
1 *889:Q *216:10 15.096 
2 *216:10 *216:14 5.776 
3 *216:14 *216:20 3.268 
4 *216:20 *788:A1 14.488 
5 *216:20 *786:A1 4.5 
6 *216:14 *790:A1 4.5 
7 *216:10 *752:A1 8.68 
*END

*D_NET *217 0.00416949
*CONN
*I *767:A1 I *D gf180mcu_fd_sc_mcu7t5v0__nand2_2
*I *766:A1 I *D gf180mcu_fd_sc_mcu7t5v0__and2_1
*I *790:A2 I *D gf180mcu_fd_sc_mcu7t5v0__nor2_1
*I *867:Q O *D gf180mcu_fd_sc_mcu7t5v0__dffrnq_1
*CAP
1 *767:A1 0.000271867
2 *766:A1 0.000494323
3 *790:A2 0.000215005
4 *867:Q 0.000119011
5 *217:21 0.000887956
6 *217:8 0.000455782
7 *773:A2 *767:A1 3.27055e-05
8 *773:A3 *767:A1 0
9 *773:A4 *766:A1 0
10 *788:A2 *766:A1 2.57058e-06
11 *867:RN *766:A1 0
12 *867:RN *217:8 2.57058e-06
13 *875:CLK *767:A1 2.30587e-05
14 *875:CLK *217:21 4.0649e-05
15 *894:I *790:A2 4.28586e-06
16 *894:I *217:8 9.27021e-05
17 *896:I *766:A1 0.000101243
18 *65:14 *766:A1 1.0115e-05
19 *132:8 *767:A1 7.47441e-05
20 *132:17 *766:A1 0.000360216
21 *132:33 *767:A1 0
22 *134:12 *767:A1 0
23 *134:12 *217:21 0
24 *134:21 *766:A1 0.000137455
25 *134:21 *217:8 0.000227267
26 *134:25 *790:A2 0.000134022
27 *134:25 *217:21 3.54426e-05
28 *187:16 *767:A1 0.000396112
29 *187:16 *217:21 1.11891e-05
30 *216:14 *790:A2 3.91978e-05
31 *216:14 *217:8 0
32 *216:20 *217:8 0
*RES
1 *867:Q *217:8 10.292 
2 *217:8 *790:A2 10.52 
3 *217:8 *217:21 0.836 
4 *217:21 *766:A1 13.104 
5 *217:21 *767:A1 11.432 
*END
