*SPEF "ieee 1481-1999"
*DESIGN "signal_processor"
*DATE "00:06:45 Monday August 10, 2026"
*VENDOR "The OpenROAD Project"
*PROGRAM "OpenROAD"
*VERSION "26Q1-1024-gdcf36133a"
*DESIGN_FLOW "NAME_SCOPE LOCAL" "PIN_CAP NONE"
*DIVIDER /
*DELIMITER :
*BUS_DELIMITER []
*T_UNIT 1 NS
*C_UNIT 1 PF
*R_UNIT 1 OHM
*L_UNIT 1 HENRY

*NAME_MAP
*3 clk
*4 comp_raw
*5 dir
*6 jitter_flag
*7 latch_phase270
*8 latch_phase270_ack
*9 latch_phase90
*10 latch_phase90_ack
*11 move_en
*12 phase_state[0]
*13 phase_state[1]
*14 rst_n
*15 soft_rst_n
*16 votes_in_phase[0]
*17 votes_in_phase[1]
*18 votes_in_phase[2]
*19 votes_in_phase[3]
*20 votes_out_phase[0]
*21 votes_out_phase[1]
*22 votes_out_phase[2]
*23 votes_out_phase[3]
*24 _000_
*25 _001_
*26 _002_
*27 _003_
*28 _004_
*29 _005_
*30 _006_
*31 _007_
*32 _008_
*33 _009_
*34 _010_
*35 _011_
*36 _012_
*37 _013_
*38 _014_
*39 _015_
*40 _016_
*41 _017_
*42 _018_
*43 _019_
*44 _020_
*45 _021_
*46 _022_
*47 _023_
*48 _024_
*49 _025_
*50 _026_
*51 _027_
*52 _028_
*53 _029_
*54 _030_
*55 _031_
*56 _032_
*57 _033_
*58 _034_
*59 _035_
*60 _036_
*61 _037_
*62 _038_
*63 _039_
*64 _040_
*65 _041_
*66 _042_
*67 _043_
*68 _044_
*69 _045_
*70 _046_
*71 _047_
*72 _048_
*73 _049_
*74 _050_
*75 _051_
*76 _052_
*77 _053_
*78 _054_
*79 _055_
*80 _056_
*81 _057_
*82 _058_
*83 _059_
*84 _060_
*85 _061_
*86 _062_
*87 _063_
*88 _064_
*89 _065_
*90 _066_
*91 _067_
*92 _068_
*93 _069_
*94 _070_
*95 _071_
*96 _072_
*97 _073_
*98 _074_
*99 _075_
*100 _076_
*101 _077_
*102 _078_
*103 _079_
*104 _080_
*105 _081_
*106 _082_
*107 _083_
*108 _084_
*109 _085_
*110 _086_
*111 _087_
*112 _088_
*113 _089_
*114 _090_
*115 _091_
*116 _092_
*117 _093_
*118 _094_
*119 _095_
*120 _096_
*121 _097_
*122 _098_
*123 _099_
*124 _100_
*125 _101_
*126 _102_
*127 _103_
*128 _104_
*129 _105_
*130 _106_
*131 _107_
*132 clknet_0_clk
*133 clknet_3_0__leaf_clk
*134 clknet_3_1__leaf_clk
*135 clknet_3_2__leaf_clk
*136 clknet_3_3__leaf_clk
*137 clknet_3_4__leaf_clk
*138 clknet_3_5__leaf_clk
*139 clknet_3_6__leaf_clk
*140 clknet_3_7__leaf_clk
*141 cnt_in\[0\]
*142 cnt_in\[1\]
*143 cnt_in\[2\]
*144 cnt_in\[3\]
*145 cnt_out\[0\]
*146 cnt_out\[1\]
*147 cnt_out\[2\]
*148 cnt_out\[3\]
*149 comp_pipe\[0\]
*150 comp_pipe\[1\]
*151 comp_pipe\[2\]
*152 comp_pipe\[3\]
*153 cycle_count\[0\]
*154 cycle_count\[1\]
*155 cycle_count\[2\]
*156 cycle_count\[3\]
*157 net1
*158 net10
*159 net11
*160 net12
*161 net13
*162 net14
*163 net15
*164 net16
*165 net17
*166 net18
*167 net19
*168 net2
*169 net20
*170 net21
*171 net22
*172 net23
*173 net24
*174 net25
*175 net26
*176 net27
*177 net28
*178 net29
*179 net3
*180 net30
*181 net31
*182 net32
*183 net33
*184 net34
*185 net35
*186 net36
*187 net37
*188 net38
*189 net39
*190 net4
*191 net40
*192 net41
*193 net42
*194 net43
*195 net44
*196 net45
*197 net46
*198 net47
*199 net48
*200 net49
*201 net5
*202 net50
*203 net51
*204 net6
*205 net7
*206 net8
*207 net9
*208 s270_pipe\[0\]
*209 s270_pipe\[1\]
*210 s270_pipe\[2\]
*211 s270_pipe\[3\]
*212 s90
*213 s90_pipe\[0\]
*214 s90_pipe\[1\]
*215 s90_pipe\[2\]
*216 s90_pipe\[3\]
*217 s90_valid
*218 FILLER_0_104
*219 FILLER_0_138
*220 FILLER_0_172
*221 FILLER_0_176
*222 FILLER_0_196
*223 FILLER_0_2
*224 FILLER_0_206
*225 FILLER_0_208
*226 FILLER_0_36
*227 FILLER_0_44
*228 FILLER_0_48
*229 FILLER_0_50
*230 FILLER_0_59
*231 FILLER_0_67
*232 FILLER_0_70
*233 FILLER_10_101
*234 FILLER_10_107
*235 FILLER_10_125
*236 FILLER_10_141
*237 FILLER_10_145
*238 FILLER_10_177
*239 FILLER_10_179
*240 FILLER_10_2
*241 FILLER_10_215
*242 FILLER_10_217
*243 FILLER_10_224
*244 FILLER_10_34
*245 FILLER_10_37
*246 FILLER_11_104
*247 FILLER_11_120
*248 FILLER_11_134
*249 FILLER_11_142
*250 FILLER_11_2
*251 FILLER_11_212
*252 FILLER_11_216
*253 FILLER_11_66
*254 FILLER_11_72
*255 FILLER_12_101
*256 FILLER_12_107
*257 FILLER_12_111
*258 FILLER_12_113
*259 FILLER_12_148
*260 FILLER_12_177
*261 FILLER_12_2
*262 FILLER_12_34
*263 FILLER_12_37
*264 FILLER_13_104
*265 FILLER_13_112
*266 FILLER_13_139
*267 FILLER_13_2
*268 FILLER_13_207
*269 FILLER_13_209
*270 FILLER_13_220
*271 FILLER_13_224
*272 FILLER_13_66
*273 FILLER_13_72
*274 FILLER_14_101
*275 FILLER_14_107
*276 FILLER_14_114
*277 FILLER_14_122
*278 FILLER_14_174
*279 FILLER_14_2
*280 FILLER_14_211
*281 FILLER_14_219
*282 FILLER_14_223
*283 FILLER_14_34
*284 FILLER_14_37
*285 FILLER_15_139
*286 FILLER_15_165
*287 FILLER_15_2
*288 FILLER_15_201
*289 FILLER_15_203
*290 FILLER_15_209
*291 FILLER_15_212
*292 FILLER_15_216
*293 FILLER_15_66
*294 FILLER_15_72
*295 FILLER_15_88
*296 FILLER_15_96
*297 FILLER_16_101
*298 FILLER_16_107
*299 FILLER_16_115
*300 FILLER_16_117
*301 FILLER_16_124
*302 FILLER_16_177
*303 FILLER_16_2
*304 FILLER_16_34
*305 FILLER_16_37
*306 FILLER_17_104
*307 FILLER_17_120
*308 FILLER_17_151
*309 FILLER_17_190
*310 FILLER_17_2
*311 FILLER_17_202
*312 FILLER_17_209
*313 FILLER_17_212
*314 FILLER_17_220
*315 FILLER_17_224
*316 FILLER_17_66
*317 FILLER_17_72
*318 FILLER_18_101
*319 FILLER_18_107
*320 FILLER_18_115
*321 FILLER_18_162
*322 FILLER_18_182
*323 FILLER_18_2
*324 FILLER_18_214
*325 FILLER_18_216
*326 FILLER_18_34
*327 FILLER_18_37
*328 FILLER_19_104
*329 FILLER_19_120
*330 FILLER_19_122
*331 FILLER_19_135
*332 FILLER_19_139
*333 FILLER_19_142
*334 FILLER_19_175
*335 FILLER_19_183
*336 FILLER_19_187
*337 FILLER_19_189
*338 FILLER_19_198
*339 FILLER_19_2
*340 FILLER_19_202
*341 FILLER_19_209
*342 FILLER_19_212
*343 FILLER_19_220
*344 FILLER_19_224
*345 FILLER_19_66
*346 FILLER_19_72
*347 FILLER_1_136
*348 FILLER_1_142
*349 FILLER_1_158
*350 FILLER_1_162
*351 FILLER_1_2
*352 FILLER_1_206
*353 FILLER_1_212
*354 FILLER_1_216
*355 FILLER_1_66
*356 FILLER_1_72
*357 FILLER_20_101
*358 FILLER_20_107
*359 FILLER_20_174
*360 FILLER_20_177
*361 FILLER_20_185
*362 FILLER_20_189
*363 FILLER_20_2
*364 FILLER_20_34
*365 FILLER_20_37
*366 FILLER_21_132
*367 FILLER_21_142
*368 FILLER_21_155
*369 FILLER_21_174
*370 FILLER_21_198
*371 FILLER_21_2
*372 FILLER_21_202
*373 FILLER_21_209
*374 FILLER_21_212
*375 FILLER_21_216
*376 FILLER_21_66
*377 FILLER_21_72
*378 FILLER_21_88
*379 FILLER_21_96
*380 FILLER_22_102
*381 FILLER_22_104
*382 FILLER_22_107
*383 FILLER_22_139
*384 FILLER_22_177
*385 FILLER_22_181
*386 FILLER_22_2
*387 FILLER_22_224
*388 FILLER_22_34
*389 FILLER_22_37
*390 FILLER_22_69
*391 FILLER_22_85
*392 FILLER_22_89
*393 FILLER_22_98
*394 FILLER_23_139
*395 FILLER_23_142
*396 FILLER_23_150
*397 FILLER_23_158
*398 FILLER_23_2
*399 FILLER_23_66
*400 FILLER_23_72
*401 FILLER_23_88
*402 FILLER_24_107
*403 FILLER_24_124
*404 FILLER_24_140
*405 FILLER_24_177
*406 FILLER_24_187
*407 FILLER_24_2
*408 FILLER_24_222
*409 FILLER_24_224
*410 FILLER_24_34
*411 FILLER_24_37
*412 FILLER_24_69
*413 FILLER_25_115
*414 FILLER_25_119
*415 FILLER_25_128
*416 FILLER_25_136
*417 FILLER_25_176
*418 FILLER_25_184
*419 FILLER_25_2
*420 FILLER_25_209
*421 FILLER_25_212
*422 FILLER_25_220
*423 FILLER_25_224
*424 FILLER_25_66
*425 FILLER_25_72
*426 FILLER_25_80
*427 FILLER_26_177
*428 FILLER_26_179
*429 FILLER_26_2
*430 FILLER_26_222
*431 FILLER_26_224
*432 FILLER_26_34
*433 FILLER_26_37
*434 FILLER_26_69
*435 FILLER_26_77
*436 FILLER_27_106
*437 FILLER_27_127
*438 FILLER_27_139
*439 FILLER_27_142
*440 FILLER_27_158
*441 FILLER_27_2
*442 FILLER_27_212
*443 FILLER_27_216
*444 FILLER_27_66
*445 FILLER_28_101
*446 FILLER_28_123
*447 FILLER_28_127
*448 FILLER_28_129
*449 FILLER_28_172
*450 FILLER_28_174
*451 FILLER_28_177
*452 FILLER_28_181
*453 FILLER_28_2
*454 FILLER_28_224
*455 FILLER_28_34
*456 FILLER_28_37
*457 FILLER_28_53
*458 FILLER_28_61
*459 FILLER_28_65
*460 FILLER_29_2
*461 FILLER_29_220
*462 FILLER_29_224
*463 FILLER_29_34
*464 FILLER_29_50
*465 FILLER_29_58
*466 FILLER_2_101
*467 FILLER_2_107
*468 FILLER_2_139
*469 FILLER_2_2
*470 FILLER_2_34
*471 FILLER_2_37
*472 FILLER_30_115
*473 FILLER_30_153
*474 FILLER_30_173
*475 FILLER_30_2
*476 FILLER_30_34
*477 FILLER_30_37
*478 FILLER_30_53
*479 FILLER_30_61
*480 FILLER_31_124
*481 FILLER_31_132
*482 FILLER_31_138
*483 FILLER_31_146
*484 FILLER_31_148
*485 FILLER_31_157
*486 FILLER_31_161
*487 FILLER_31_180
*488 FILLER_31_184
*489 FILLER_31_191
*490 FILLER_31_193
*491 FILLER_31_2
*492 FILLER_31_202
*493 FILLER_31_206
*494 FILLER_31_208
*495 FILLER_31_36
*496 FILLER_31_40
*497 FILLER_31_47
*498 FILLER_31_63
*499 FILLER_31_67
*500 FILLER_31_70
*501 FILLER_3_100
*502 FILLER_3_102
*503 FILLER_3_137
*504 FILLER_3_139
*505 FILLER_3_142
*506 FILLER_3_2
*507 FILLER_3_203
*508 FILLER_3_207
*509 FILLER_3_209
*510 FILLER_3_212
*511 FILLER_3_216
*512 FILLER_3_66
*513 FILLER_3_72
*514 FILLER_3_88
*515 FILLER_3_96
*516 FILLER_4_119
*517 FILLER_4_127
*518 FILLER_4_129
*519 FILLER_4_164
*520 FILLER_4_166
*521 FILLER_4_177
*522 FILLER_4_179
*523 FILLER_4_2
*524 FILLER_4_34
*525 FILLER_4_37
*526 FILLER_5_125
*527 FILLER_5_129
*528 FILLER_5_190
*529 FILLER_5_192
*530 FILLER_5_2
*531 FILLER_5_209
*532 FILLER_5_220
*533 FILLER_5_224
*534 FILLER_5_66
*535 FILLER_5_72
*536 FILLER_5_88
*537 FILLER_5_90
*538 FILLER_6_107
*539 FILLER_6_170
*540 FILLER_6_177
*541 FILLER_6_2
*542 FILLER_6_34
*543 FILLER_6_37
*544 FILLER_6_69
*545 FILLER_6_85
*546 FILLER_6_93
*547 FILLER_7_139
*548 FILLER_7_142
*549 FILLER_7_150
*550 FILLER_7_2
*551 FILLER_7_66
*552 FILLER_7_72
*553 FILLER_7_88
*554 FILLER_8_142
*555 FILLER_8_150
*556 FILLER_8_154
*557 FILLER_8_2
*558 FILLER_8_34
*559 FILLER_8_37
*560 FILLER_8_69
*561 FILLER_8_85
*562 FILLER_8_93
*563 FILLER_8_95
*564 FILLER_9_132
*565 FILLER_9_134
*566 FILLER_9_139
*567 FILLER_9_142
*568 FILLER_9_146
*569 FILLER_9_2
*570 FILLER_9_207
*571 FILLER_9_209
*572 FILLER_9_212
*573 FILLER_9_220
*574 FILLER_9_224
*575 FILLER_9_66
*576 FILLER_9_72
*577 FILLER_9_80
*578 FILLER_9_84
*579 PHY_EDGE_ROW_0_Left_32
*580 PHY_EDGE_ROW_0_Right_0
*581 PHY_EDGE_ROW_10_Left_42
*582 PHY_EDGE_ROW_10_Right_10
*583 PHY_EDGE_ROW_11_Left_43
*584 PHY_EDGE_ROW_11_Right_11
*585 PHY_EDGE_ROW_12_Left_44
*586 PHY_EDGE_ROW_12_Right_12
*587 PHY_EDGE_ROW_13_Left_45
*588 PHY_EDGE_ROW_13_Right_13
*589 PHY_EDGE_ROW_14_Left_46
*590 PHY_EDGE_ROW_14_Right_14
*591 PHY_EDGE_ROW_15_Left_47
*592 PHY_EDGE_ROW_15_Right_15
*593 PHY_EDGE_ROW_16_Left_48
*594 PHY_EDGE_ROW_16_Right_16
*595 PHY_EDGE_ROW_17_Left_49
*596 PHY_EDGE_ROW_17_Right_17
*597 PHY_EDGE_ROW_18_Left_50
*598 PHY_EDGE_ROW_18_Right_18
*599 PHY_EDGE_ROW_19_Left_51
*600 PHY_EDGE_ROW_19_Right_19
*601 PHY_EDGE_ROW_1_Left_33
*602 PHY_EDGE_ROW_1_Right_1
*603 PHY_EDGE_ROW_20_Left_52
*604 PHY_EDGE_ROW_20_Right_20
*605 PHY_EDGE_ROW_21_Left_53
*606 PHY_EDGE_ROW_21_Right_21
*607 PHY_EDGE_ROW_22_Left_54
*608 PHY_EDGE_ROW_22_Right_22
*609 PHY_EDGE_ROW_23_Left_55
*610 PHY_EDGE_ROW_23_Right_23
*611 PHY_EDGE_ROW_24_Left_56
*612 PHY_EDGE_ROW_24_Right_24
*613 PHY_EDGE_ROW_25_Left_57
*614 PHY_EDGE_ROW_25_Right_25
*615 PHY_EDGE_ROW_26_Left_58
*616 PHY_EDGE_ROW_26_Right_26
*617 PHY_EDGE_ROW_27_Left_59
*618 PHY_EDGE_ROW_27_Right_27
*619 PHY_EDGE_ROW_28_Left_60
*620 PHY_EDGE_ROW_28_Right_28
*621 PHY_EDGE_ROW_29_Left_61
*622 PHY_EDGE_ROW_29_Right_29
*623 PHY_EDGE_ROW_2_Left_34
*624 PHY_EDGE_ROW_2_Right_2
*625 PHY_EDGE_ROW_30_Left_62
*626 PHY_EDGE_ROW_30_Right_30
*627 PHY_EDGE_ROW_31_Left_63
*628 PHY_EDGE_ROW_31_Right_31
*629 PHY_EDGE_ROW_3_Left_35
*630 PHY_EDGE_ROW_3_Right_3
*631 PHY_EDGE_ROW_4_Left_36
*632 PHY_EDGE_ROW_4_Right_4
*633 PHY_EDGE_ROW_5_Left_37
*634 PHY_EDGE_ROW_5_Right_5
*635 PHY_EDGE_ROW_6_Left_38
*636 PHY_EDGE_ROW_6_Right_6
*637 PHY_EDGE_ROW_7_Left_39
*638 PHY_EDGE_ROW_7_Right_7
*639 PHY_EDGE_ROW_8_Left_40
*640 PHY_EDGE_ROW_8_Right_8
*641 PHY_EDGE_ROW_9_Left_41
*642 PHY_EDGE_ROW_9_Right_9
*643 TAP_TAPCELL_ROW_0_64
*644 TAP_TAPCELL_ROW_0_65
*645 TAP_TAPCELL_ROW_0_66
*646 TAP_TAPCELL_ROW_0_67
*647 TAP_TAPCELL_ROW_0_68
*648 TAP_TAPCELL_ROW_0_69
*649 TAP_TAPCELL_ROW_10_97
*650 TAP_TAPCELL_ROW_10_98
*651 TAP_TAPCELL_ROW_10_99
*652 TAP_TAPCELL_ROW_11_100
*653 TAP_TAPCELL_ROW_11_101
*654 TAP_TAPCELL_ROW_11_102
*655 TAP_TAPCELL_ROW_12_103
*656 TAP_TAPCELL_ROW_12_104
*657 TAP_TAPCELL_ROW_12_105
*658 TAP_TAPCELL_ROW_13_106
*659 TAP_TAPCELL_ROW_13_107
*660 TAP_TAPCELL_ROW_13_108
*661 TAP_TAPCELL_ROW_14_109
*662 TAP_TAPCELL_ROW_14_110
*663 TAP_TAPCELL_ROW_14_111
*664 TAP_TAPCELL_ROW_15_112
*665 TAP_TAPCELL_ROW_15_113
*666 TAP_TAPCELL_ROW_15_114
*667 TAP_TAPCELL_ROW_16_115
*668 TAP_TAPCELL_ROW_16_116
*669 TAP_TAPCELL_ROW_16_117
*670 TAP_TAPCELL_ROW_17_118
*671 TAP_TAPCELL_ROW_17_119
*672 TAP_TAPCELL_ROW_17_120
*673 TAP_TAPCELL_ROW_18_121
*674 TAP_TAPCELL_ROW_18_122
*675 TAP_TAPCELL_ROW_18_123
*676 TAP_TAPCELL_ROW_19_124
*677 TAP_TAPCELL_ROW_19_125
*678 TAP_TAPCELL_ROW_19_126
*679 TAP_TAPCELL_ROW_1_70
*680 TAP_TAPCELL_ROW_1_71
*681 TAP_TAPCELL_ROW_1_72
*682 TAP_TAPCELL_ROW_20_127
*683 TAP_TAPCELL_ROW_20_128
*684 TAP_TAPCELL_ROW_20_129
*685 TAP_TAPCELL_ROW_21_130
*686 TAP_TAPCELL_ROW_21_131
*687 TAP_TAPCELL_ROW_21_132
*688 TAP_TAPCELL_ROW_22_133
*689 TAP_TAPCELL_ROW_22_134
*690 TAP_TAPCELL_ROW_22_135
*691 TAP_TAPCELL_ROW_23_136
*692 TAP_TAPCELL_ROW_23_137
*693 TAP_TAPCELL_ROW_23_138
*694 TAP_TAPCELL_ROW_24_139
*695 TAP_TAPCELL_ROW_24_140
*696 TAP_TAPCELL_ROW_24_141
*697 TAP_TAPCELL_ROW_25_142
*698 TAP_TAPCELL_ROW_25_143
*699 TAP_TAPCELL_ROW_25_144
*700 TAP_TAPCELL_ROW_26_145
*701 TAP_TAPCELL_ROW_26_146
*702 TAP_TAPCELL_ROW_26_147
*703 TAP_TAPCELL_ROW_27_148
*704 TAP_TAPCELL_ROW_27_149
*705 TAP_TAPCELL_ROW_27_150
*706 TAP_TAPCELL_ROW_28_151
*707 TAP_TAPCELL_ROW_28_152
*708 TAP_TAPCELL_ROW_28_153
*709 TAP_TAPCELL_ROW_29_154
*710 TAP_TAPCELL_ROW_29_155
*711 TAP_TAPCELL_ROW_29_156
*712 TAP_TAPCELL_ROW_2_73
*713 TAP_TAPCELL_ROW_2_74
*714 TAP_TAPCELL_ROW_2_75
*715 TAP_TAPCELL_ROW_30_157
*716 TAP_TAPCELL_ROW_30_158
*717 TAP_TAPCELL_ROW_30_159
*718 TAP_TAPCELL_ROW_31_160
*719 TAP_TAPCELL_ROW_31_161
*720 TAP_TAPCELL_ROW_31_162
*721 TAP_TAPCELL_ROW_31_163
*722 TAP_TAPCELL_ROW_31_164
*723 TAP_TAPCELL_ROW_31_165
*724 TAP_TAPCELL_ROW_3_76
*725 TAP_TAPCELL_ROW_3_77
*726 TAP_TAPCELL_ROW_3_78
*727 TAP_TAPCELL_ROW_4_79
*728 TAP_TAPCELL_ROW_4_80
*729 TAP_TAPCELL_ROW_4_81
*730 TAP_TAPCELL_ROW_5_82
*731 TAP_TAPCELL_ROW_5_83
*732 TAP_TAPCELL_ROW_5_84
*733 TAP_TAPCELL_ROW_6_85
*734 TAP_TAPCELL_ROW_6_86
*735 TAP_TAPCELL_ROW_6_87
*736 TAP_TAPCELL_ROW_7_88
*737 TAP_TAPCELL_ROW_7_89
*738 TAP_TAPCELL_ROW_7_90
*739 TAP_TAPCELL_ROW_8_91
*740 TAP_TAPCELL_ROW_8_92
*741 TAP_TAPCELL_ROW_8_93
*742 TAP_TAPCELL_ROW_9_94
*743 TAP_TAPCELL_ROW_9_95
*744 TAP_TAPCELL_ROW_9_96
*745 _108_
*746 _109_
*747 _110_
*748 _111_
*749 _112_
*750 _113_
*751 _114_
*752 _115_
*753 _116_
*754 _117_
*755 _118_
*756 _119_
*757 _120_
*758 _121_
*759 _122_
*760 _123_
*761 _124_
*762 _125_
*763 _126_
*764 _127_
*765 _128_
*766 _129_
*767 _130_
*768 _131_
*769 _132_
*770 _133_
*771 _134_
*772 _135_
*773 _136_
*774 _137_
*775 _138_
*776 _139_
*777 _140_
*778 _141_
*779 _142_
*780 _143_
*781 _144_
*782 _145_
*783 _146_
*784 _147_
*785 _148_
*786 _149_
*787 _150_
*788 _151_
*789 _152_
*790 _153_
*791 _154_
*792 _155_
*793 _156_
*794 _157_
*795 _158_
*796 _159_
*797 _160_
*798 _161_
*799 _162_
*800 _163_
*801 _164_
*802 _165_
*803 _166_
*804 _167_
*805 _168_
*806 _169_
*807 _170_
*808 _171_
*809 _172_
*810 _173_
*811 _174_
*812 _175_
*813 _176_
*814 _177_
*815 _178_
*816 _179_
*817 _180_
*818 _181_
*819 _182_
*820 _183_
*821 _184_
*822 _185_
*823 _186_
*824 _187_
*825 _188_
*826 _189_
*827 _190_
*828 _191_
*829 _192_
*830 _193_
*831 _194_
*832 _195_
*833 _196_
*834 _197_
*835 _198_
*836 _199_
*837 _200_
*838 _201_
*839 _202_
*840 _203_
*841 _204_
*842 _205_
*843 _206_
*844 _207_
*845 _208_
*846 _209_
*847 _210_
*848 _211_
*849 _212_
*850 _213_
*851 _214_
*852 _215_
*853 _216_
*854 _217_
*855 _218_
*856 _219_
*857 _220_
*858 _221_
*859 _222_
*860 _223_
*861 _224_
*862 _225_
*863 _226_
*864 _227_
*865 _228_
*866 _229_
*867 _230_
*868 _231_
*869 _232_
*870 _233_
*871 _234_
*872 _235_
*873 _236_
*874 _237_
*875 _238_
*876 _239_
*877 _240_
*878 _241_
*879 _242_
*880 _243_
*881 _244_
*882 _245_
*883 _246_
*884 _247_
*885 _248_
*886 _249_
*887 _250_
*888 _251_
*889 _252_
*890 _253_
*891 _254_
*892 _255_
*893 _256_
*894 clkbuf_0_clk
*895 clkbuf_3_0__f_clk
*896 clkbuf_3_1__f_clk
*897 clkbuf_3_2__f_clk
*898 clkbuf_3_3__f_clk
*899 clkbuf_3_4__f_clk
*900 clkbuf_3_5__f_clk
*901 clkbuf_3_6__f_clk
*902 clkbuf_3_7__f_clk
*903 clkload0
*904 clkload1
*905 clkload2
*906 clkload3
*907 clkload4
*908 clkload5
*909 clkload6
*910 fanout21
*911 fanout27
*912 fanout29
*913 fanout33
*914 fanout37
*915 fanout41
*916 fanout45
*917 fanout49
*918 input1
*919 input2
*920 input3
*921 input4
*922 input5
*923 load_slew23
*924 load_slew25
*925 load_slew26
*926 load_slew28
*927 load_slew30
*928 load_slew31
*929 load_slew34
*930 load_slew36
*931 load_slew38
*932 load_slew39
*933 load_slew40
*934 load_slew42
*935 load_slew43
*936 load_slew44
*937 load_slew46
*938 load_slew47
*939 load_slew48
*940 output10
*941 output11
*942 output12
*943 output13
*944 output14
*945 output15
*946 output16
*947 output17
*948 output18
*949 output19
*950 output20
*951 output6
*952 output7
*953 output8
*954 output9
*955 wire22
*956 wire24
*957 wire32
*958 wire35
*959 wire50
*960 wire51

*PORTS
clk I
comp_raw I
dir O
jitter_flag O
latch_phase270 I
latch_phase270_ack O
latch_phase90 I
latch_phase90_ack O
move_en O
phase_state[0] O
phase_state[1] O
rst_n I
soft_rst_n I
votes_in_phase[0] O
votes_in_phase[1] O
votes_in_phase[2] O
votes_in_phase[3] O
votes_out_phase[0] O
votes_out_phase[1] O
votes_out_phase[2] O
votes_out_phase[3] O

*D_NET *3 0.014821
*CONN
*P clk I
*I *894:I I *D gf180mcu_fd_sc_mcu7t5v0__clkbuf_16
*CAP
1 clk 0.00424545
2 *894:I 8.50249e-05
3 *3:22 0.00157549
4 *3:12 0.00573592
5 *894:I *790:A2 4.34856e-06
6 *894:I *134:21 3.22741e-06
7 *894:I *216:14 0
8 *894:I *217:8 9.90941e-05
9 *3:12 *754:A2 0
10 *3:12 *758:A2 0.000315
11 *3:12 *887:D 0
12 *3:12 *890:RN 0.000143583
13 *3:12 *199:8 0.000627045
14 *3:12 *199:10 0.000129087
15 *3:12 *203:19 0
16 *3:12 *203:42 0
17 *3:22 *810:A2 0.000236727
18 *3:22 *813:A1 3.98088e-05
19 *3:22 *813:A2 0.000144929
20 *3:22 *880:D 0.000327505
21 *3:22 *893:CLK 0.000151417
22 *3:22 *914:I 0.000812727
23 *3:22 *132:33 0
24 *3:22 *132:37 0
25 *3:22 *132:48 0
26 *3:22 *132:53 0
27 *3:22 *134:21 2.85707e-05
28 *3:22 *176:42 0.000116082
29 *3:22 *216:14 0
*RES
1 clk *3:12 42.975 
2 *3:12 *3:22 13.8504 
3 *3:22 *894:I 5.22964 
*END

*D_NET *4 0.00217004
*CONN
*P comp_raw I
*I *918:I I *D gf180mcu_fd_sc_mcu7t5v0__buf_1
*CAP
1 comp_raw 0.00083559
2 *918:I 0.00083559
3 *918:I latch_phase270_ack 0
4 *918:I votes_out_phase[3] 0.000436478
5 *918:I *883:RN 3.01487e-05
6 *918:I *950:I 3.22348e-05
*RES
1 comp_raw *918:I 15.795 
*END

*D_NET *5 0.00157092
*CONN
*P dir O
*I *951:Z O *D gf180mcu_fd_sc_mcu7t5v0__buf_2
*CAP
1 dir 0.000785462
2 *951:Z 0.000785462
*RES
1 *951:Z dir 10.485 
*END

*D_NET *6 0.00164247
*CONN
*P jitter_flag O
*I *952:Z O *D gf180mcu_fd_sc_mcu7t5v0__buf_2
*CAP
1 jitter_flag 0.000821234
2 *952:Z 0.000821234
*RES
1 *952:Z jitter_flag 15.255 
*END

*D_NET *7 0.00188173
*CONN
*P latch_phase270 I
*I *919:I I *D gf180mcu_fd_sc_mcu7t5v0__buf_1
*CAP
1 latch_phase270 0.000940867
2 *919:I 0.000940867
*RES
1 latch_phase270 *919:I 12.465 
*END

*D_NET *8 0.00192772
*CONN
*P latch_phase270_ack O
*I *953:Z O *D gf180mcu_fd_sc_mcu7t5v0__buf_2
*CAP
1 latch_phase270_ack 0.00096386
2 *953:Z 0.00096386
3 *918:I latch_phase270_ack 0
*RES
1 *953:Z latch_phase270_ack 12.645 
*END

*D_NET *9 0.002243
*CONN
*P latch_phase90 I
*I *920:I I *D gf180mcu_fd_sc_mcu7t5v0__buf_1
*CAP
1 latch_phase90 0.00110588
2 *920:I 0.00110588
3 *920:I *757:A2 3.12451e-05
*RES
1 latch_phase90 *920:I 13.545 
*END

*D_NET *10 0.00177729
*CONN
*P latch_phase90_ack O
*I *954:Z O *D gf180mcu_fd_sc_mcu7t5v0__buf_2
*CAP
1 latch_phase90_ack 0.000888643
2 *954:Z 0.000888643
*RES
1 *954:Z latch_phase90_ack 11.115 
*END

*D_NET *11 0.00157092
*CONN
*P move_en O
*I *940:Z O *D gf180mcu_fd_sc_mcu7t5v0__buf_2
*CAP
1 move_en 0.000785462
2 *940:Z 0.000785462
*RES
1 *940:Z move_en 10.485 
*END

*D_NET *12 0.00164398
*CONN
*P phase_state[0] O
*I *941:Z O *D gf180mcu_fd_sc_mcu7t5v0__buf_2
*CAP
1 phase_state[0] 0.000623975
2 *941:Z 0.000623975
3 phase_state[0] *929:I 0.00015547
4 phase_state[0] *159:10 0.000240557
*RES
1 *941:Z phase_state[0] 13.995 
*END

*D_NET *13 0.00150777
*CONN
*P phase_state[1] O
*I *942:Z O *D gf180mcu_fd_sc_mcu7t5v0__buf_2
*CAP
1 phase_state[1] 0.000692196
2 *942:Z 0.000692196
3 phase_state[1] *842:A1 0.000123376
*RES
1 *942:Z phase_state[1] 13.995 
*END

*D_NET *14 0.00170739
*CONN
*P rst_n I
*I *921:I I *D gf180mcu_fd_sc_mcu7t5v0__buf_1
*CAP
1 rst_n 0.000853695
2 *921:I 0.000853695
*RES
1 rst_n *921:I 10.935 
*END

*D_NET *15 0.00180086
*CONN
*P soft_rst_n I
*I *922:I I *D gf180mcu_fd_sc_mcu7t5v0__buf_1
*CAP
1 soft_rst_n 0.000900428
2 *922:I 0.000900428
*RES
1 soft_rst_n *922:I 11.385 
*END

*D_NET *16 0.00110529
*CONN
*P votes_in_phase[0] O
*I *943:Z O *D gf180mcu_fd_sc_mcu7t5v0__buf_2
*CAP
1 votes_in_phase[0] 0.00046946
2 *943:Z 0.00046946
3 votes_in_phase[0] *161:10 6.40324e-06
4 votes_in_phase[0] *174:31 0.00015997
*RES
1 *943:Z votes_in_phase[0] 12.915 
*END

*D_NET *17 0.000714206
*CONN
*P votes_in_phase[1] O
*I *944:Z O *D gf180mcu_fd_sc_mcu7t5v0__buf_2
*CAP
1 votes_in_phase[1] 0.000357103
2 *944:Z 0.000357103
3 votes_in_phase[1] *162:10 0
*RES
1 *944:Z votes_in_phase[1] 11.925 
*END

*D_NET *18 0.00130585
*CONN
*P votes_in_phase[2] O
*I *945:Z O *D gf180mcu_fd_sc_mcu7t5v0__buf_2
*CAP
1 votes_in_phase[2] 0.000468425
2 *945:Z 0.000468425
3 votes_in_phase[2] *163:10 0.000368997
4 votes_in_phase[2] *174:55 0
*RES
1 *945:Z votes_in_phase[2] 12.915 
*END

*D_NET *19 0.00118421
*CONN
*P votes_in_phase[3] O
*I *946:Z O *D gf180mcu_fd_sc_mcu7t5v0__buf_2
*CAP
1 votes_in_phase[3] 0.000468059
2 *946:Z 0.000468059
3 votes_in_phase[3] *861:RN 1.4106e-05
4 votes_in_phase[3] *164:10 0.000233987
*RES
1 *946:Z votes_in_phase[3] 12.735 
*END

*D_NET *20 0.000979301
*CONN
*P votes_out_phase[0] O
*I *947:Z O *D gf180mcu_fd_sc_mcu7t5v0__buf_2
*CAP
1 votes_out_phase[0] 0.000458606
2 *947:Z 0.000458606
3 votes_out_phase[0] *862:RN 4.15563e-05
4 votes_out_phase[0] *165:8 2.05328e-05
*RES
1 *947:Z votes_out_phase[0] 12.555 
*END

*D_NET *21 0.00112837
*CONN
*P votes_out_phase[1] O
*I *948:Z O *D gf180mcu_fd_sc_mcu7t5v0__buf_2
*CAP
1 votes_out_phase[1] 0.000447395
2 *948:Z 0.000447395
3 votes_out_phase[1] *862:RN 0.000233578
*RES
1 *948:Z votes_out_phase[1] 12.555 
*END

*D_NET *22 0.000880078
*CONN
*P votes_out_phase[2] O
*I *949:Z O *D gf180mcu_fd_sc_mcu7t5v0__buf_2
*CAP
1 votes_out_phase[2] 0.000386771
2 *949:Z 0.000386771
3 votes_out_phase[2] *862:RN 0.000106536
*RES
1 *949:Z votes_out_phase[2] 12.195 
*END

*D_NET *23 0.00192935
*CONN
*P votes_out_phase[3] O
*I *950:Z O *D gf180mcu_fd_sc_mcu7t5v0__buf_2
*CAP
1 votes_out_phase[3] 0.000400214
2 *950:Z 0.000400214
3 votes_out_phase[3] *883:RN 0.000187628
4 votes_out_phase[3] *950:I 0.00050482
5 *918:I votes_out_phase[3] 0.000436478
*RES
1 *950:Z votes_out_phase[3] 13.455 
*END

*D_NET *24 0.00292928
*CONN
*I *882:D I *D gf180mcu_fd_sc_mcu7t5v0__dffrnq_1
*I *761:Z O *D gf180mcu_fd_sc_mcu7t5v0__and2_1
*CAP
1 *882:D 0.000391076
2 *761:Z 0.000391076
3 *882:D *761:A1 0.000166364
4 *882:D *763:A1 0.000436469
5 *882:D *763:A2 6.13537e-05
6 *882:D *785:A2 2.17099e-05
7 *882:D *785:B 8.56272e-05
8 *882:D *883:CLK 0.000939893
9 *882:D *885:RN 4.54383e-05
10 *882:D *139:20 0.000354738
11 *882:D *140:6 6.50416e-06
12 *882:D *140:39 2.14747e-05
13 *882:D *140:50 7.55765e-06
*RES
1 *761:Z *882:D 23.4 
*END

*D_NET *25 0.000542589
*CONN
*I *883:D I *D gf180mcu_fd_sc_mcu7t5v0__dffrnq_1
*I *762:Z O *D gf180mcu_fd_sc_mcu7t5v0__and2_1
*CAP
1 *883:D 0.000254041
2 *762:Z 0.000254041
3 *883:D *753:A2 2.37695e-05
4 *883:D *881:D 0
5 *883:D *883:CLK 1.07374e-05
6 *883:D *885:RN 0
*RES
1 *762:Z *883:D 10.8 
*END

*D_NET *26 0.00234246
*CONN
*I *884:D I *D gf180mcu_fd_sc_mcu7t5v0__dffrnq_1
*I *763:Z O *D gf180mcu_fd_sc_mcu7t5v0__and2_1
*CAP
1 *884:D 0.000844764
2 *763:Z 0.000844764
3 *884:D *881:D 0
4 *884:D *885:RN 0.000569413
5 *884:D *915:I 8.35152e-05
*RES
1 *763:Z *884:D 14.76 
*END

*D_NET *27 0.000969638
*CONN
*I *885:D I *D gf180mcu_fd_sc_mcu7t5v0__dffrnq_1
*I *764:Z O *D gf180mcu_fd_sc_mcu7t5v0__and2_1
*CAP
1 *885:D 0.000304127
2 *764:Z 0.000304127
3 *885:D *815:A1 0.000128431
4 *885:D *874:CLK 7.55765e-06
5 *885:D *132:114 0.0001241
6 *885:D *132:123 3.11287e-05
7 *885:D *140:16 7.01651e-05
8 *885:D *211:26 0
*RES
1 *764:Z *885:D 11.97 
*END

*D_NET *28 0.00254704
*CONN
*I *881:D I *D gf180mcu_fd_sc_mcu7t5v0__dffrnq_1
*I *765:Z O *D gf180mcu_fd_sc_mcu7t5v0__and2_1
*CAP
1 *881:D 0.00030904
2 *765:Z 0.00030904
3 *881:D *753:A2 0.000305335
4 *881:D *762:A1 0.000955665
5 *881:D *885:RN 0.000567809
6 *881:D *195:10 0.000100154
7 *883:D *881:D 0
8 *884:D *881:D 0
*RES
1 *765:Z *881:D 22.68 
*END

*D_NET *29 0.00288433
*CONN
*I *880:D I *D gf180mcu_fd_sc_mcu7t5v0__dffrnq_1
*I *752:Z O *D gf180mcu_fd_sc_mcu7t5v0__and2_1
*CAP
1 *880:D 0.000540676
2 *752:Z 0.000540676
3 *880:D *880:CLK 0
4 *880:D *893:CLK 9.63115e-05
5 *880:D *914:I 0.00111189
6 *880:D *939:I 0.000115386
7 *880:D *176:38 5.04083e-05
8 *880:D *196:10 0.00010148
9 *3:22 *880:D 0.000327505
*RES
1 *752:Z *880:D 15.3 
*END

*D_NET *30 0.000904305
*CONN
*I *890:D I *D gf180mcu_fd_sc_mcu7t5v0__dffrnq_1
*I *753:Z O *D gf180mcu_fd_sc_mcu7t5v0__and2_1
*CAP
1 *890:D 0.000348828
2 *753:Z 0.000348828
3 *890:D *754:A1 0
4 *890:D *886:D 0
5 *890:D *890:CLK 0.000204492
6 *890:D *891:D 2.1573e-06
*RES
1 *753:Z *890:D 11.52 
*END

*D_NET *31 0.00104306
*CONN
*I *891:D I *D gf180mcu_fd_sc_mcu7t5v0__dffrnq_1
*I *754:Z O *D gf180mcu_fd_sc_mcu7t5v0__and2_1
*CAP
1 *891:D 0.000128758
2 *754:Z 0.000128758
3 *891:D *754:A2 5.22248e-06
4 *891:D *886:D 3.12451e-05
5 *891:D *890:CLK 0.000382884
6 *891:D *917:I 0.000116655
7 *891:D *138:43 0.000247379
8 *890:D *891:D 2.1573e-06
*RES
1 *754:Z *891:D 19.98 
*END

*D_NET *32 0.000425519
*CONN
*I *892:D I *D gf180mcu_fd_sc_mcu7t5v0__dffrnq_1
*I *755:Z O *D gf180mcu_fd_sc_mcu7t5v0__and2_1
*CAP
1 *892:D 0.000166436
2 *755:Z 0.000166436
3 *892:D *755:A2 0
4 *892:D *960:I 9.07783e-05
5 *892:D *138:32 1.86887e-06
*RES
1 *755:Z *892:D 10.26 
*END

*D_NET *33 0.000457611
*CONN
*I *893:D I *D gf180mcu_fd_sc_mcu7t5v0__dffrnq_1
*I *756:Z O *D gf180mcu_fd_sc_mcu7t5v0__and2_1
*CAP
1 *893:D 0.000154517
2 *756:Z 0.000154517
3 *893:D *756:A2 0.000148576
4 *893:D *140:16 0
*RES
1 *756:Z *893:D 10.26 
*END

*D_NET *34 0.0019465
*CONN
*I *886:D I *D gf180mcu_fd_sc_mcu7t5v0__dffrnq_1
*I *757:Z O *D gf180mcu_fd_sc_mcu7t5v0__and2_1
*CAP
1 *886:D 0.000746507
2 *757:Z 0.000746507
3 *886:D *757:A1 1.86887e-06
4 *886:D *886:CLK 2.65444e-06
5 *886:D *911:I 0.000417717
6 *886:D *176:14 0
7 *890:D *886:D 0
8 *891:D *886:D 3.12451e-05
*RES
1 *757:Z *886:D 14.04 
*END

*D_NET *35 0.00105416
*CONN
*I *887:D I *D gf180mcu_fd_sc_mcu7t5v0__dffrnq_1
*I *758:Z O *D gf180mcu_fd_sc_mcu7t5v0__and2_1
*CAP
1 *887:D 0.000414013
2 *758:Z 0.000414013
3 *887:D *886:CLK 6.31783e-05
4 *887:D *887:CLK 9.34006e-05
5 *887:D *137:18 6.95539e-05
6 *3:12 *887:D 0
*RES
1 *758:Z *887:D 21.24 
*END

*D_NET *36 0.00159559
*CONN
*I *888:D I *D gf180mcu_fd_sc_mcu7t5v0__dffrnq_1
*I *759:Z O *D gf180mcu_fd_sc_mcu7t5v0__and2_1
*CAP
1 *888:D 0.000510765
2 *759:Z 0.000510765
3 *888:D *759:A2 5.50498e-05
4 *888:D *137:10 0.000519014
*RES
1 *759:Z *888:D 13.41 
*END

*D_NET *37 0.00268882
*CONN
*I *889:D I *D gf180mcu_fd_sc_mcu7t5v0__dffrnq_1
*I *760:Z O *D gf180mcu_fd_sc_mcu7t5v0__and2_1
*CAP
1 *889:D 0.000870297
2 *760:Z 0.000870297
3 *889:D *752:A1 0.000635511
4 *889:D *760:A1 0
5 *889:D *873:CLK 7.55765e-06
6 *889:D *914:I 0.000164277
7 *889:D *137:53 0.000140876
8 *889:D *197:10 0
*RES
1 *760:Z *889:D 24.93 
*END

*D_NET *38 0.00150029
*CONN
*I *864:D I *D gf180mcu_fd_sc_mcu7t5v0__dffrnq_1
*I *782:ZN O *D gf180mcu_fd_sc_mcu7t5v0__oai21_1
*CAP
1 *864:D 0.000578174
2 *782:ZN 0.000578174
3 *864:D *761:A1 4.81899e-05
4 *864:D *782:A1 0.000217463
5 *864:D *139:6 7.82853e-05
6 *864:D *152:14 0
*RES
1 *782:ZN *864:D 22.14 
*END

*D_NET *39 0.00069948
*CONN
*I *865:D I *D gf180mcu_fd_sc_mcu7t5v0__dffrnq_1
*I *785:ZN O *D gf180mcu_fd_sc_mcu7t5v0__oai21_1
*CAP
1 *865:D 0.000183792
2 *785:ZN 0.000183792
3 *865:D *785:A1 0
4 *865:D *785:A2 0.000286386
5 *865:D *883:CLK 1.61174e-05
6 *865:D *139:20 2.93938e-05
*RES
1 *785:ZN *865:D 10.62 
*END

*D_NET *40 0.00144984
*CONN
*I *866:D I *D gf180mcu_fd_sc_mcu7t5v0__dffrnq_1
*I *788:ZN O *D gf180mcu_fd_sc_mcu7t5v0__oai21_1
*CAP
1 *866:D 0.000209387
2 *788:ZN 0.000209387
3 *866:D *788:A1 0.000190974
4 *866:D *788:B 4.6613e-06
5 *866:D *866:CLK 8.52804e-05
6 *866:D *182:30 3.39443e-05
7 *866:D *191:12 0.000247389
8 *866:D *191:22 0.000468821
*RES
1 *788:ZN *866:D 20.7 
*END

*D_NET *41 0.00102569
*CONN
*I *867:D I *D gf180mcu_fd_sc_mcu7t5v0__dffrnq_1
*I *791:ZN O *D gf180mcu_fd_sc_mcu7t5v0__nor2_1
*CAP
1 *867:D 0.000283683
2 *791:ZN 0.000283683
3 *867:D *866:CLK 0
4 *867:D *867:CLK 0.000458327
*RES
1 *791:ZN *867:D 20.25 
*END

*D_NET *42 0.00155536
*CONN
*I *868:D I *D gf180mcu_fd_sc_mcu7t5v0__dffrnq_1
*I *796:ZN O *D gf180mcu_fd_sc_mcu7t5v0__nor2_1
*CAP
1 *868:D 0.000562331
2 *796:ZN 0.000562331
3 *868:D *745:I 0
4 *868:D *771:A1 0.000104268
5 *868:D *868:CLK 0.000222914
6 *868:D *904:I 5.50498e-05
7 *868:D *956:I 2.30981e-05
8 *868:D *69:12 0
9 *868:D *125:6 2.5365e-05
*RES
1 *796:ZN *868:D 13.23 
*END

*D_NET *43 0.000864014
*CONN
*I *869:D I *D gf180mcu_fd_sc_mcu7t5v0__dffrnq_1
*I *801:ZN O *D gf180mcu_fd_sc_mcu7t5v0__nor2_1
*CAP
1 *869:D 0.000120652
2 *801:ZN 0.000120652
3 *869:D *793:A4 6.17613e-06
4 *869:D *796:A1 2.54766e-05
5 *869:D *844:A2 0.000515801
6 *869:D *175:14 7.52558e-05
*RES
1 *801:ZN *869:D 19.53 
*END

*D_NET *44 0.00256664
*CONN
*I *870:D I *D gf180mcu_fd_sc_mcu7t5v0__dffrnq_1
*I *805:ZN O *D gf180mcu_fd_sc_mcu7t5v0__nor2_1
*CAP
1 *870:D 0.000418261
2 *805:ZN 0.000418261
3 *870:D *775:A2 0.000478207
4 *870:D *798:A1 1.56779e-05
5 *870:D *802:A2 3.38425e-05
6 *870:D *805:A2 0.000247093
7 *870:D *807:A1 3.01487e-05
8 *870:D *829:B 0
9 *870:D *92:6 0
10 *870:D *113:26 0.000132459
11 *870:D *126:20 0.000619086
12 *870:D *152:22 0.00017361
*RES
1 *805:ZN *870:D 22.95 
*END

*D_NET *45 0.00562779
*CONN
*I *871:D I *D gf180mcu_fd_sc_mcu7t5v0__dffrnq_1
*I *807:ZN O *D gf180mcu_fd_sc_mcu7t5v0__nor2_1
*CAP
1 *871:D 0.000763188
2 *807:ZN 0.000763188
3 *871:D *777:A2 5.68787e-05
4 *871:D *802:A1 0.000447756
5 *871:D *805:A2 0.00122665
6 *871:D *807:A2 9.73144e-05
7 *871:D *845:A1 3.22348e-05
8 *871:D *845:A2 0.000106536
9 *871:D *846:B 0.00015997
10 *871:D *847:A1 9.30128e-05
11 *871:D *848:B 0
12 *871:D *850:A1 8.66127e-05
13 *871:D *851:A2 7.55765e-06
14 *871:D *98:12 0
15 *871:D *126:10 5.82191e-05
16 *871:D *143:10 0.00117568
17 *871:D *152:22 0
18 *871:D *171:27 0.000326528
19 *871:D *171:34 4.55112e-05
20 *871:D *174:55 0.00018095
*RES
1 *807:ZN *871:D 29.25 
*END

*D_NET *46 0.000518884
*CONN
*I *872:D I *D gf180mcu_fd_sc_mcu7t5v0__dffrnq_1
*I *810:ZN O *D gf180mcu_fd_sc_mcu7t5v0__nor2_1
*CAP
1 *872:D 0.00010534
2 *810:ZN 0.00010534
3 *872:D *914:I 0.000148234
4 *872:D *216:14 0.00015997
*RES
1 *810:ZN *872:D 10.44 
*END

*D_NET *47 0.00140845
*CONN
*I *873:D I *D gf180mcu_fd_sc_mcu7t5v0__dffrnq_1
*I *813:ZN O *D gf180mcu_fd_sc_mcu7t5v0__nor2_1
*CAP
1 *873:D 0.000335074
2 *813:ZN 0.000335074
3 *873:D *810:A1 0.000169917
4 *873:D *810:A2 0
5 *873:D *914:I 0.000151427
6 *873:D *175:29 4.34691e-05
7 *873:D *216:14 0.00037349
*RES
1 *813:ZN *873:D 21.06 
*END

*D_NET *48 0.00101917
*CONN
*I *874:D I *D gf180mcu_fd_sc_mcu7t5v0__dffrnq_1
*I *814:ZN O *D gf180mcu_fd_sc_mcu7t5v0__nor2_1
*CAP
1 *874:D 0.00022498
2 *814:ZN 0.00022498
3 *874:D *761:A1 3.96454e-05
4 *874:D *815:A1 0.000356005
5 *874:D *875:D 9.02026e-05
6 *874:D *211:26 8.33579e-05
*RES
1 *814:ZN *874:D 20.34 
*END

*D_NET *49 0.00259058
*CONN
*I *875:D I *D gf180mcu_fd_sc_mcu7t5v0__dffrnq_1
*I *815:ZN O *D gf180mcu_fd_sc_mcu7t5v0__nor2_1
*CAP
1 *875:D 0.000930466
2 *815:ZN 0.000930466
3 *875:D *761:A1 0
4 *875:D *814:A1 0
5 *875:D *815:A1 7.003e-06
6 *875:D *875:CLK 0
7 *875:D *901:I 1.29802e-05
8 *875:D *132:33 0
9 *875:D *132:37 0
10 *875:D *132:48 0
11 *875:D *132:160 0.00027125
12 *875:D *175:63 3.92088e-05
13 *875:D *211:26 0.000309004
14 *874:D *875:D 9.02026e-05
*RES
1 *815:ZN *875:D 25.29 
*END

*D_NET *50 0.00221443
*CONN
*I *876:D I *D gf180mcu_fd_sc_mcu7t5v0__dffrnq_1
*I *818:ZN O *D gf180mcu_fd_sc_mcu7t5v0__oai21_1
*CAP
1 *876:D 0.000438279
2 *818:ZN 0.000438279
3 *876:D *816:A1 8.52638e-05
4 *876:D *840:A2 1.58709e-05
5 *876:D *876:CLK 5.85332e-05
6 *876:D *66:53 0.000448889
7 *876:D *104:14 0.00034797
8 *876:D *133:31 0.000381349
*RES
1 *818:ZN *876:D 14.22 
*END

*D_NET *51 0.000616297
*CONN
*I *877:D I *D gf180mcu_fd_sc_mcu7t5v0__dffrnq_1
*I *820:ZN O *D gf180mcu_fd_sc_mcu7t5v0__oai22_1
*CAP
1 *877:D 0.000109763
2 *820:ZN 0.000109763
3 *877:D *820:A1 0.00037349
4 *877:D *820:A2 0
5 *877:D *877:CLK 2.32821e-05
*RES
1 *820:ZN *877:D 10.26 
*END

*D_NET *52 0.00383437
*CONN
*I *878:D I *D gf180mcu_fd_sc_mcu7t5v0__dffrnq_1
*I *826:ZN O *D gf180mcu_fd_sc_mcu7t5v0__aoi22_1
*CAP
1 *878:D 0.000497687
2 *826:ZN 0.000497687
3 *878:D *749:I 0.000171136
4 *878:D *820:A2 0.000916111
5 *878:D *826:B2 0.00132555
6 *878:D *878:CLK 7.55765e-06
7 *878:D *879:D 4.76678e-05
8 *878:D *879:CLK 0
9 *878:D *85:22 0.00037097
*RES
1 *826:ZN *878:D 25.02 
*END

*D_NET *53 0.00139231
*CONN
*I *879:D I *D gf180mcu_fd_sc_mcu7t5v0__dffrnq_1
*I *828:ZN O *D gf180mcu_fd_sc_mcu7t5v0__oai31_1
*CAP
1 *879:D 0.000474439
2 *828:ZN 0.000474439
3 *879:D *749:I 3.44697e-05
4 *879:D *820:A2 0
5 *879:D *827:A2 0.000291133
6 *879:D *879:CLK 7.01651e-05
7 *878:D *879:D 4.76678e-05
*RES
1 *828:ZN *879:D 22.32 
*END

*D_NET *54 0.00126909
*CONN
*I *853:D I *D gf180mcu_fd_sc_mcu7t5v0__dffrnq_1
*I *833:ZN O *D gf180mcu_fd_sc_mcu7t5v0__oai32_1
*CAP
1 *853:D 0.00039567
2 *833:ZN 0.00039567
3 *853:D *833:A2 8.31276e-05
4 *853:D *838:A1 0
5 *853:D *838:A3 8.22153e-05
6 *853:D *842:A2 4.109e-05
7 *853:D *842:B 6.06389e-05
8 *853:D *856:D 0.000152365
9 *853:D *858:D 5.8316e-05
*RES
1 *833:ZN *853:D 12.24 
*END

*D_NET *55 0.000626584
*CONN
*I *854:D I *D gf180mcu_fd_sc_mcu7t5v0__dffrnq_1
*I *835:ZN O *D gf180mcu_fd_sc_mcu7t5v0__oai21_1
*CAP
1 *854:D 0.000304001
2 *835:ZN 0.000304001
3 *854:D *835:A2 1.85811e-05
4 *854:D *857:RN 0
5 *854:D *69:12 0
*RES
1 *835:ZN *854:D 10.98 
*END

*D_NET *56 0.00243468
*CONN
*I *855:D I *D gf180mcu_fd_sc_mcu7t5v0__dffrnq_1
*I *837:ZN O *D gf180mcu_fd_sc_mcu7t5v0__nor3_1
*CAP
1 *855:D 0.000348486
2 *837:ZN 0.000348486
3 *855:D *836:A2 0.000496776
4 *855:D *837:A1 0.00107043
5 *855:D *856:D 2.77266e-05
6 *855:D *858:D 0.000111532
7 *855:D *172:14 3.12451e-05
*RES
1 *837:ZN *855:D 13.14 
*END

*D_NET *57 0.00283474
*CONN
*I *856:D I *D gf180mcu_fd_sc_mcu7t5v0__dffrnq_1
*I *839:ZN O *D gf180mcu_fd_sc_mcu7t5v0__oai31_1
*CAP
1 *856:D 0.000362972
2 *839:ZN 0.000362972
3 *856:D *833:A1 0.000213554
4 *856:D *833:A2 1.06861e-05
5 *856:D *833:B1 4.23555e-05
6 *856:D *835:A1 9.3226e-06
7 *856:D *836:A2 3.97987e-05
8 *856:D *838:A1 5.03319e-05
9 *856:D *838:A3 4.34467e-06
10 *856:D *842:A2 2.89427e-06
11 *856:D *842:B 2.63343e-05
12 *856:D *853:CLK 3.01487e-05
13 *856:D *858:D 0.000565367
14 *856:D *66:96 6.94998e-06
15 *856:D *70:20 9.58795e-05
16 *856:D *125:27 0.000275357
17 *856:D *135:22 1.22166e-05
18 *856:D *172:14 0.000543162
19 *853:D *856:D 0.000152365
20 *855:D *856:D 2.77266e-05
*RES
1 *839:ZN *856:D 22.59 
*END

*D_NET *58 0.00070896
*CONN
*I *857:D I *D gf180mcu_fd_sc_mcu7t5v0__dffrnq_1
*I *840:ZN O *D gf180mcu_fd_sc_mcu7t5v0__oai22_1
*CAP
1 *857:D 0.000212825
2 *840:ZN 0.000212825
3 *857:D *840:A1 0.000103033
4 *857:D *840:A2 2.49806e-06
5 *857:D *876:CLK 6.25284e-05
6 *857:D *133:31 0.000115251
7 *857:D *153:29 0
*RES
1 *840:ZN *857:D 10.71 
*END

*D_NET *59 0.00361435
*CONN
*I *858:D I *D gf180mcu_fd_sc_mcu7t5v0__dffrnq_1
*I *842:ZN O *D gf180mcu_fd_sc_mcu7t5v0__oai21_1
*CAP
1 *858:D 0.000632239
2 *842:ZN 0.000632239
3 *858:D *836:A2 0.000113471
4 *858:D *838:A1 0.000779233
5 *858:D *842:A2 0.000163093
6 *858:D *842:B 0.000428029
7 *858:D *172:14 0.000130834
8 *853:D *858:D 5.8316e-05
9 *855:D *858:D 0.000111532
10 *856:D *858:D 0.000565367
*RES
1 *842:ZN *858:D 25.29 
*END

*D_NET *60 0.000731073
*CONN
*I *859:D I *D gf180mcu_fd_sc_mcu7t5v0__dffrnq_1
*I *844:ZN O *D gf180mcu_fd_sc_mcu7t5v0__oai21_1
*CAP
1 *859:D 0.000336176
2 *844:ZN 0.000336176
3 *859:D *851:A2 1.10551e-05
4 *859:D *98:12 4.31393e-06
5 *859:D *136:8 4.33529e-05
*RES
1 *844:ZN *859:D 11.07 
*END

*D_NET *61 0.00150523
*CONN
*I *860:D I *D gf180mcu_fd_sc_mcu7t5v0__dffrnq_1
*I *846:ZN O *D gf180mcu_fd_sc_mcu7t5v0__oai21_1
*CAP
1 *860:D 0.000504568
2 *846:ZN 0.000504568
3 *860:D *846:A2 0
4 *860:D *846:B 0
5 *860:D *871:CLK 0
6 *860:D *136:37 0
7 *860:D *171:12 5.9617e-05
8 *860:D *174:44 0.000436478
*RES
1 *846:ZN *860:D 22.32 
*END

*D_NET *62 0.000651528
*CONN
*I *861:D I *D gf180mcu_fd_sc_mcu7t5v0__dffrnq_1
*I *848:ZN O *D gf180mcu_fd_sc_mcu7t5v0__oai21_1
*CAP
1 *861:D 6.08671e-05
2 *848:ZN 6.08671e-05
3 *861:D *98:12 0.000444513
4 *861:D *143:10 8.52804e-05
*RES
1 *848:ZN *861:D 10.17 
*END

*D_NET *63 0.000666493
*CONN
*I *862:D I *D gf180mcu_fd_sc_mcu7t5v0__dffrnq_1
*I *850:ZN O *D gf180mcu_fd_sc_mcu7t5v0__oai21_1
*CAP
1 *862:D 0.000275236
2 *850:ZN 0.000275236
3 *862:D *807:A2 0
4 *862:D *171:42 0
5 *862:D *174:86 0.000116022
*RES
1 *850:ZN *862:D 19.98 
*END

*D_NET *64 0.000670595
*CONN
*I *863:D I *D gf180mcu_fd_sc_mcu7t5v0__dffrnq_1
*I *852:ZN O *D gf180mcu_fd_sc_mcu7t5v0__oai21_1
*CAP
1 *863:D 0.000250429
2 *852:ZN 0.000250429
3 *863:D *782:B 2.68638e-05
4 *863:D *171:42 0
5 *863:D *174:90 0.000142874
*RES
1 *852:ZN *863:D 19.62 
*END

*D_NET *65 0.00690685
*CONN
*I *773:A4 I *D gf180mcu_fd_sc_mcu7t5v0__nand4_1
*I *792:A3 I *D gf180mcu_fd_sc_mcu7t5v0__nand3_1
*I *793:A4 I *D gf180mcu_fd_sc_mcu7t5v0__nand4_1
*I *817:A1 I *D gf180mcu_fd_sc_mcu7t5v0__nand2_1
*I *825:A4 I *D gf180mcu_fd_sc_mcu7t5v0__nand4_1
*I *766:Z O *D gf180mcu_fd_sc_mcu7t5v0__and2_1
*CAP
1 *773:A4 0.000297898
2 *792:A3 0
3 *793:A4 0.000126972
4 *817:A1 0
5 *825:A4 0.00021732
6 *766:Z 0.000144526
7 *65:40 0.000201724
8 *65:20 0.000581005
9 *65:14 0.00104151
10 *65:8 0.0010455
11 *773:A4 *766:A1 0
12 *773:A4 *896:I 1.65711e-05
13 *773:A4 *132:17 1.46362e-05
14 *773:A4 *134:12 0.000433797
15 *773:A4 *187:16 0.000101516
16 *773:A4 *191:12 3.42663e-05
17 *793:A4 *792:A1 0.000244819
18 *793:A4 *794:A2 0.000171937
19 *793:A4 *797:A1 0.00016559
20 *793:A4 *172:22 1.18076e-06
21 *793:A4 *175:14 0
22 *825:A4 *823:A1 0.000114555
23 *825:A4 *823:A2 0.000193098
24 *825:A4 *878:RN 5.78854e-06
25 *825:A4 *85:55 1.50885e-05
26 *825:A4 *156:10 3.73774e-06
27 *825:A4 *181:8 0.000620071
28 *65:8 *191:12 0.000215697
29 *65:14 *766:A1 1.03692e-05
30 *65:14 *787:A2 6.27691e-05
31 *65:14 *788:A2 0
32 *65:14 *792:A2 0
33 *65:14 *797:A1 8.71716e-05
34 *65:14 *840:A2 0
35 *65:14 *866:RN 8.52001e-05
36 *65:14 *187:16 1.58709e-05
37 *65:14 *212:43 0
38 *65:20 *787:A2 5.28794e-05
39 *65:20 *823:A1 0
40 *65:20 *840:A2 4.15093e-05
41 *65:20 *66:32 0
42 *65:20 *66:53 0.000365454
43 *65:20 *172:22 0
44 *65:40 *787:A2 6.13169e-05
45 *65:40 *797:A1 0.000109323
46 *65:40 *172:22 0
47 *869:D *793:A4 6.17613e-06
*RES
1 *766:Z *65:8 10.71 
2 *65:8 *65:14 13.23 
3 *65:14 *65:20 7.74 
4 *65:20 *825:A4 16.02 
5 *65:20 *817:A1 4.5 
6 *65:14 *65:40 0.99 
7 *65:40 *793:A4 10.8 
8 *65:40 *792:A3 9 
9 *65:8 *773:A4 11.7 
*END

*D_NET *66 0.0238593
*CONN
*I *798:A3 I *D gf180mcu_fd_sc_mcu7t5v0__nor4_4
*I *775:A3 I *D gf180mcu_fd_sc_mcu7t5v0__nor4_4
*I *772:A3 I *D gf180mcu_fd_sc_mcu7t5v0__nor3_2
*I *839:A3 I *D gf180mcu_fd_sc_mcu7t5v0__oai31_1
*I *838:A3 I *D gf180mcu_fd_sc_mcu7t5v0__nand3_1
*I *769:A2 I *D gf180mcu_fd_sc_mcu7t5v0__or3_1
*I *840:A1 I *D gf180mcu_fd_sc_mcu7t5v0__oai22_1
*I *816:A3 I *D gf180mcu_fd_sc_mcu7t5v0__nand3_1
*I *789:A2 I *D gf180mcu_fd_sc_mcu7t5v0__nand2_1
*I *767:ZN O *D gf180mcu_fd_sc_mcu7t5v0__nand2_2
*CAP
1 *798:A3 0.000753675
2 *775:A3 0
3 *772:A3 0.000753675
4 *839:A3 0
5 *838:A3 0.000630456
6 *769:A2 2.99052e-05
7 *840:A1 8.08526e-05
8 *816:A3 0.000309947
9 *789:A2 0.000223199
10 *767:ZN 0.00015812
11 *66:96 0.00154568
12 *66:81 0.00118768
13 *66:68 0.000566029
14 *66:53 0.00109375
15 *66:32 0.00176278
16 *66:14 0.00127858
17 *66:12 0.000438297
18 *769:A2 *153:29 2.60586e-05
19 *769:A2 *172:22 8.49208e-05
20 *789:A2 *789:A1 1.61174e-05
21 *789:A2 *85:10 4.83522e-05
22 *789:A2 *85:55 0
23 *798:A3 *804:A1 0.000299993
24 *798:A3 *804:A2 0.000177559
25 *798:A3 *829:B 2.14748e-05
26 *798:A3 *92:6 0.000348345
27 *798:A3 *113:26 0.000163092
28 *798:A3 *152:37 0.000245851
29 *798:A3 *189:10 0
30 *798:A3 *212:19 6.5543e-05
31 *816:A3 *748:I 0.000293993
32 *816:A3 *153:29 1.11529e-05
33 *838:A3 *779:A1 4.45215e-05
34 *838:A3 *833:A2 0
35 *838:A3 *833:B1 7.41234e-06
36 *838:A3 *839:B 8.15289e-06
37 *838:A3 *842:A2 0.000288244
38 *838:A3 *951:I 9.84908e-05
39 *838:A3 *956:I 3.01487e-05
40 *838:A3 *78:6 0.000837943
41 *838:A3 *125:27 3.73774e-06
42 *838:A3 *204:12 0.000286386
43 *840:A1 *840:B1 1.61174e-05
44 *840:A1 *133:31 2.10303e-05
45 *840:A1 *153:29 0
46 *66:12 *774:A2 1.13131e-05
47 *66:12 *775:A4 9.84908e-05
48 *66:12 *808:A2 3.08083e-05
49 *66:12 *145:32 4.43411e-05
50 *66:12 *211:26 0.000185687
51 *66:14 *773:A1 1.4382e-06
52 *66:14 *775:A2 1.68677e-06
53 *66:14 *808:A2 0.000222861
54 *66:14 *126:20 0.000168237
55 *66:14 *126:28 8.68281e-06
56 *66:14 *187:16 0
57 *66:14 *211:26 4.6613e-06
58 *66:32 *773:A1 1.86887e-06
59 *66:32 *787:A1 0.000455757
60 *66:32 *787:A2 7.34245e-05
61 *66:32 *797:A2 0.000587403
62 *66:32 *798:A4 0.000371316
63 *66:32 *866:RN 2.06277e-05
64 *66:32 *113:26 0.00103711
65 *66:32 *126:28 0.000335944
66 *66:32 *187:16 4.76068e-05
67 *66:32 *212:43 9.22024e-05
68 *66:53 *816:A1 0.000961972
69 *66:53 *824:B 0.000216245
70 *66:53 *840:A2 4.13695e-05
71 *66:53 *928:I 4.6613e-06
72 *66:53 *85:55 0.00074808
73 *66:53 *104:8 0.000247817
74 *66:53 *104:14 9.3226e-06
75 *66:53 *181:8 0.000750193
76 *66:53 *191:22 0
77 *66:68 *153:29 2.18243e-05
78 *66:81 *840:B2 0.000485536
79 *66:81 *153:29 3.10592e-05
80 *66:96 *831:A2 0.000128424
81 *66:96 *840:B2 0.000545498
82 *66:96 *910:I 0.000184999
83 *66:96 *956:I 0.000192821
84 *66:96 *70:20 0
85 *66:96 *112:29 0.000191347
86 *66:96 *113:26 2.30975e-05
87 *66:96 *125:21 5.46043e-06
88 *853:D *838:A3 8.22153e-05
89 *856:D *838:A3 4.34467e-06
90 *856:D *66:96 6.94998e-06
91 *857:D *840:A1 0.000103033
92 *876:D *66:53 0.000448889
93 *65:20 *66:32 0
94 *65:20 *66:53 0.000365454
*RES
1 *767:ZN *66:12 15.12 
2 *66:12 *66:14 2.79 
3 *66:14 *66:32 15.12 
4 *66:32 *789:A2 10.26 
5 *66:32 *66:53 17.55 
6 *66:53 *816:A3 11.07 
7 *66:53 *66:68 1.35 
8 *66:68 *840:A1 9.72 
9 *66:68 *66:81 2.07 
10 *66:81 *769:A2 9.27 
11 *66:81 *66:96 11.88 
12 *66:96 *838:A3 10.62 
13 *66:96 *839:A3 4.5 
14 *66:14 *772:A3 4.5 
15 *66:12 *775:A3 4.5 
16 *772:A3 *798:A3 25.2 
*END

*D_NET *67 0.00220966
*CONN
*I *769:A3 I *D gf180mcu_fd_sc_mcu7t5v0__or3_1
*I *768:ZN O *D gf180mcu_fd_sc_mcu7t5v0__nand3_1
*CAP
1 *769:A3 0.000272211
2 *768:ZN 0.000272211
3 *769:A3 *780:A2 6.26074e-05
4 *769:A3 *824:A1 0
5 *769:A3 *832:B 3.77882e-05
6 *769:A3 *869:CLK 1.03102e-05
7 *769:A3 *113:26 0
8 *769:A3 *153:40 4.44491e-05
9 *769:A3 *153:42 4.21513e-05
10 *769:A3 *172:22 0.00082525
11 *769:A3 *181:32 0.00064268
*RES
1 *768:ZN *769:A3 21.96 
*END

*D_NET *68 0.00256535
*CONN
*I *770:I I *D gf180mcu_fd_sc_mcu7t5v0__clkinv_1
*I *780:A2 I *D gf180mcu_fd_sc_mcu7t5v0__nand2_2
*I *832:B I *D gf180mcu_fd_sc_mcu7t5v0__aoi21_1
*I *769:Z O *D gf180mcu_fd_sc_mcu7t5v0__or3_1
*CAP
1 *770:I 0.000103469
2 *780:A2 0.000451363
3 *832:B 0.000331735
4 *769:Z 0
5 *68:4 0.000679629
6 *780:A2 *780:A1 6.38612e-06
7 *780:A2 *831:A2 4.01448e-05
8 *780:A2 *869:CLK 0.000174506
9 *780:A2 *112:18 2.76357e-05
10 *780:A2 *113:26 0.000105712
11 *780:A2 *180:10 0.000167278
12 *780:A2 *181:32 2.55518e-05
13 *832:B *751:I 0.000174189
14 *832:B *832:A1 1.51153e-05
15 *832:B *834:A1 1.07374e-05
16 *832:B *112:18 2.22695e-05
17 *832:B *113:26 3.22122e-05
18 *832:B *172:22 9.702e-05
19 *769:A3 *780:A2 6.26074e-05
20 *769:A3 *832:B 3.77882e-05
*RES
1 *769:Z *68:4 4.5 
2 *68:4 *832:B 7.56 
3 *68:4 *780:A2 16.74 
4 *780:A2 *770:I 9.81 
*END

*D_NET *69 0.00655465
*CONN
*I *771:A2 I *D gf180mcu_fd_sc_mcu7t5v0__nand2_2
*I *779:A2 I *D gf180mcu_fd_sc_mcu7t5v0__nor2_1
*I *836:A2 I *D gf180mcu_fd_sc_mcu7t5v0__nor2_1
*I *770:ZN O *D gf180mcu_fd_sc_mcu7t5v0__clkinv_1
*CAP
1 *771:A2 0.000109476
2 *779:A2 0
3 *836:A2 0.00040727
4 *770:ZN 9.92186e-05
5 *69:12 0.00104851
6 *69:8 0.000849937
7 *771:A2 *956:I 1.44938e-05
8 *771:A2 *180:10 4.34691e-05
9 *771:A2 *180:21 0.000162064
10 *836:A2 *837:A1 2.36914e-05
11 *836:A2 *837:A3 2.99208e-05
12 *836:A2 *838:A1 7.72732e-05
13 *836:A2 *842:A1 5.96002e-05
14 *836:A2 *842:B 0.000628698
15 *836:A2 *853:CLK 0.000337213
16 *836:A2 *854:CLK 0.000977871
17 *836:A2 *172:14 8.53393e-05
18 *69:8 *180:10 0.000180463
19 *69:12 *779:A1 0.000269359
20 *69:12 *831:A2 0
21 *69:12 *910:I 1.97593e-05
22 *69:12 *125:6 0.000322173
23 *69:12 *170:10 0.000158798
24 *854:D *69:12 0
25 *855:D *836:A2 0.000496776
26 *856:D *836:A2 3.97987e-05
27 *858:D *836:A2 0.000113471
28 *868:D *69:12 0
*RES
1 *770:ZN *69:8 9.99 
2 *69:8 *69:12 9.45 
3 *69:12 *836:A2 19.89 
4 *69:12 *779:A2 4.5 
5 *69:8 *771:A2 10.17 
*END

*D_NET *70 0.00783902
*CONN
*I *924:I I *D gf180mcu_fd_sc_mcu7t5v0__buf_2
*I *833:B2 I *D gf180mcu_fd_sc_mcu7t5v0__oai32_1
*I *835:A1 I *D gf180mcu_fd_sc_mcu7t5v0__oai21_1
*I *771:ZN O *D gf180mcu_fd_sc_mcu7t5v0__nand2_2
*CAP
1 *924:I 0.000567861
2 *833:B2 0
3 *835:A1 9.18405e-05
4 *771:ZN 0.000124707
5 *70:20 0.000407453
6 *70:8 0.00100818
7 *835:A1 *751:I 1.71254e-05
8 *835:A1 *833:B1 9.04462e-05
9 *835:A1 *842:A2 0.000150744
10 *835:A1 *942:I 0.000517694
11 *835:A1 *115:8 0.00156793
12 *835:A1 *170:10 0.000417214
13 *924:I *838:A1 3.85778e-05
14 *924:I *842:B 0.000223398
15 *924:I *956:I 4.90594e-05
16 *924:I *170:25 0.000223398
17 *70:8 *838:A1 1.94121e-05
18 *70:8 *956:I 7.06707e-05
19 *70:8 *180:21 4.30894e-05
20 *70:20 *833:B1 0.000147435
21 *70:20 *837:A1 0.000161754
22 *70:20 *842:A2 0.000213587
23 *70:20 *868:CLK 0.000354728
24 *70:20 *942:I 5.00391e-05
25 *70:20 *956:I 0
26 *70:20 *125:21 9.19654e-06
27 *70:20 *125:27 0.00014932
28 *70:20 *135:20 0.000789629
29 *70:20 *135:22 0.000229324
30 *856:D *835:A1 9.3226e-06
31 *856:D *70:20 9.58795e-05
32 *66:96 *70:20 0
*RES
1 *771:ZN *70:8 9.99 
2 *70:8 *70:20 17.91 
3 *70:20 *835:A1 18 
4 *70:20 *833:B2 4.5 
5 *70:8 *924:I 13.68 
*END

*D_NET *71 0.00378742
*CONN
*I *809:A2 I *D gf180mcu_fd_sc_mcu7t5v0__xnor2_1
*I *808:A2 I *D gf180mcu_fd_sc_mcu7t5v0__xor2_1
*I *772:ZN O *D gf180mcu_fd_sc_mcu7t5v0__nor3_2
*CAP
1 *809:A2 7.29542e-05
2 *808:A2 0.000306342
3 *772:ZN 0.000233388
4 *808:A2 *775:A4 5.03947e-05
5 *808:A2 *809:A1 4.6613e-06
6 *808:A2 *72:8 0.00130672
7 *808:A2 *175:63 0
8 *809:A2 *775:A4 0.000294421
9 *809:A2 *809:A1 0.000258557
10 *809:A2 *175:63 2.14748e-05
11 *809:A2 *211:26 0.000984845
12 *66:12 *808:A2 3.08083e-05
13 *66:14 *808:A2 0.000222861
*RES
1 *772:ZN *808:A2 12.78 
2 *808:A2 *809:A2 11.61 
*END

*D_NET *72 0.00434493
*CONN
*I *812:A2 I *D gf180mcu_fd_sc_mcu7t5v0__xor2_1
*I *811:A2 I *D gf180mcu_fd_sc_mcu7t5v0__xnor2_1
*I *773:ZN O *D gf180mcu_fd_sc_mcu7t5v0__nand4_1
*CAP
1 *812:A2 0.000196801
2 *811:A2 0
3 *773:ZN 0.000237719
4 *72:8 0.000434519
5 *812:A2 *774:A2 0
6 *812:A2 *809:A1 1.84368e-05
7 *812:A2 *812:A1 0.000152165
8 *812:A2 *872:RN 0
9 *812:A2 *146:8 6.93035e-05
10 *812:A2 *175:63 0.000506201
11 *72:8 *773:A2 0.00117006
12 *72:8 *774:A2 2.49724e-05
13 *72:8 *809:A1 5.85233e-05
14 *72:8 *145:17 0.000169515
15 *808:A2 *72:8 0.00130672
*RES
1 *773:ZN *72:8 9.36 
2 *72:8 *811:A2 4.5 
3 *72:8 *812:A2 7.11 
*END

*D_NET *73 0.00195644
*CONN
*I *775:A4 I *D gf180mcu_fd_sc_mcu7t5v0__nor4_4
*I *774:ZN O *D gf180mcu_fd_sc_mcu7t5v0__nand2_1
*CAP
1 *775:A4 0.000265808
2 *774:ZN 0.000265808
3 *775:A4 *774:A2 5.23787e-05
4 *775:A4 *809:A1 0.00035741
5 *775:A4 *145:32 4.50389e-05
6 *775:A4 *175:29 0.000144938
7 *775:A4 *175:55 8.91539e-05
8 *775:A4 *175:85 8.42806e-05
9 *775:A4 *211:26 0.000208323
10 *808:A2 *775:A4 5.03947e-05
11 *809:A2 *775:A4 0.000294421
12 *66:12 *775:A4 9.84908e-05
*RES
1 *774:ZN *775:A4 21.96 
*END

*D_NET *74 0.00323129
*CONN
*I *778:A2 I *D gf180mcu_fd_sc_mcu7t5v0__xnor2_1
*I *776:A2 I *D gf180mcu_fd_sc_mcu7t5v0__nand2_1
*I *777:A2 I *D gf180mcu_fd_sc_mcu7t5v0__xor2_1
*I *775:ZN O *D gf180mcu_fd_sc_mcu7t5v0__nor4_4
*CAP
1 *778:A2 0
2 *776:A2 0.000116096
3 *777:A2 0.000491775
4 *775:ZN 0.000332785
5 *74:18 0.000275086
6 *776:A2 *776:A1 0.000501538
7 *776:A2 *852:A2 2.63437e-05
8 *776:A2 *211:26 0.000106536
9 *777:A2 *775:A2 1.0415e-05
10 *777:A2 *777:A1 0.000106536
11 *777:A2 *830:A1 0
12 *777:A2 *830:B 0.000121576
13 *777:A2 *830:C 1.66092e-05
14 *777:A2 *126:10 0.000172602
15 *777:A2 *152:14 2.09122e-05
16 *777:A2 *152:22 0.000815992
17 *74:18 *777:A1 5.96096e-05
18 *74:18 *211:26 0
19 *871:D *777:A2 5.68787e-05
*RES
1 *775:ZN *777:A2 12.87 
2 *777:A2 *74:18 5.67 
3 *74:18 *776:A2 15.12 
4 *74:18 *778:A2 4.5 
*END

*D_NET *75 0.00289542
*CONN
*I *783:A2 I *D gf180mcu_fd_sc_mcu7t5v0__xor2_1
*I *776:ZN O *D gf180mcu_fd_sc_mcu7t5v0__nand2_1
*CAP
1 *783:A2 0.000658344
2 *776:ZN 0.000658344
3 *783:A2 *776:A1 1.0415e-05
4 *783:A2 *783:A1 0
5 *783:A2 *875:RN 0.000256675
6 *783:A2 *901:I 0.000129894
7 *783:A2 *77:8 0.000114459
8 *783:A2 *132:160 0.000500188
9 *783:A2 *194:26 0.000261398
10 *783:A2 *211:26 0.000305705
*RES
1 *776:ZN *783:A2 16.83 
*END

*D_NET *76 0.000648104
*CONN
*I *830:C I *D gf180mcu_fd_sc_mcu7t5v0__oai211_1
*I *777:Z O *D gf180mcu_fd_sc_mcu7t5v0__xor2_1
*CAP
1 *830:C 0.000255762
2 *777:Z 0.000255762
3 *830:C *830:A1 5.90896e-05
4 *830:C *850:A2 6.08811e-05
5 *830:C *211:26 0
6 *777:A2 *830:C 1.66092e-05
*RES
1 *777:Z *830:C 10.71 
*END

*D_NET *77 0.00274207
*CONN
*I *782:A2 I *D gf180mcu_fd_sc_mcu7t5v0__oai21_1
*I *814:A1 I *D gf180mcu_fd_sc_mcu7t5v0__nor2_1
*I *778:ZN O *D gf180mcu_fd_sc_mcu7t5v0__xnor2_1
*CAP
1 *782:A2 0.000459285
2 *814:A1 0.000243749
3 *778:ZN 0.00015332
4 *77:8 0.000856355
5 *782:A2 *852:A2 0.000226001
6 *814:A1 *852:A2 2.68039e-05
7 *814:A1 *175:63 0.000142831
8 *814:A1 *211:26 0.000507502
9 *77:8 *875:RN 1.17652e-05
10 *783:A2 *77:8 0.000114459
11 *875:D *814:A1 0
*RES
1 *778:ZN *77:8 10.17 
2 *77:8 *814:A1 11.52 
3 *77:8 *782:A2 13.23 
*END

*D_NET *78 0.00502002
*CONN
*I *956:I I *D gf180mcu_fd_sc_mcu7t5v0__dlyb_1
*I *910:I I *D gf180mcu_fd_sc_mcu7t5v0__dlyb_1
*I *779:ZN O *D gf180mcu_fd_sc_mcu7t5v0__nor2_1
*CAP
1 *956:I 0.000500183
2 *910:I 0.000351088
3 *779:ZN 0.000100631
4 *78:6 0.000951902
5 *910:I *833:B1 0.000179038
6 *910:I *835:A2 0
7 *910:I *112:29 9.63432e-05
8 *910:I *125:21 8.99346e-05
9 *956:I *125:6 0.000459815
10 *956:I *125:21 0
11 *956:I *180:21 0
12 *78:6 *779:A1 0.000777646
13 *78:6 *125:6 9.04462e-05
14 *771:A2 *956:I 1.44938e-05
15 *838:A3 *956:I 3.01487e-05
16 *838:A3 *78:6 0.000837943
17 *868:D *956:I 2.30981e-05
18 *924:I *956:I 4.90594e-05
19 *66:96 *910:I 0.000184999
20 *66:96 *956:I 0.000192821
21 *69:12 *910:I 1.97593e-05
22 *70:8 *956:I 7.06707e-05
23 *70:20 *956:I 0
*RES
1 *779:ZN *78:6 6.93 
2 *78:6 *910:I 16.56 
3 *78:6 *956:I 17.46 
*END

*D_NET *79 0.00308505
*CONN
*I *925:I I *D gf180mcu_fd_sc_mcu7t5v0__buf_2
*I *824:A1 I *D gf180mcu_fd_sc_mcu7t5v0__oai21_1
*I *780:ZN O *D gf180mcu_fd_sc_mcu7t5v0__nand2_2
*CAP
1 *925:I 0
2 *824:A1 0.000736682
3 *780:ZN 0.000407469
4 *79:10 0.00114415
5 *824:A1 *780:A1 0
6 *824:A1 *796:A1 5.31501e-05
7 *824:A1 *827:A2 5.13763e-05
8 *824:A1 *106:8 5.36405e-05
9 *824:A1 *153:40 6.58085e-05
10 *824:A1 *153:42 0.000171026
11 *824:A1 *172:22 0
12 *824:A1 *175:14 8.73645e-05
13 *824:A1 *181:32 0
14 *79:10 *780:A1 4.96595e-05
15 *79:10 *796:A1 6.7943e-05
16 *79:10 *868:RN 3.35761e-05
17 *79:10 *897:I 0.000126948
18 *79:10 *132:93 3.62545e-05
19 *79:10 *180:10 0
20 *769:A3 *824:A1 0
*RES
1 *780:ZN *79:10 12.06 
2 *79:10 *824:A1 14.49 
3 *79:10 *925:I 9 
*END

*D_NET *80 0.00177049
*CONN
*I *782:B I *D gf180mcu_fd_sc_mcu7t5v0__oai21_1
*I *781:ZN O *D gf180mcu_fd_sc_mcu7t5v0__nand2_1
*CAP
1 *782:B 0.000648672
2 *781:ZN 0.000648672
3 *782:B *781:A2 0
4 *782:B *851:A1 0.000283225
5 *782:B *852:A2 1.16291e-05
6 *782:B *852:B 0
7 *782:B *863:RN 0.000151427
8 *782:B *171:42 0
9 *863:D *782:B 2.68638e-05
*RES
1 *781:ZN *782:B 23.58 
*END

*D_NET *81 0.0022288
*CONN
*I *785:A2 I *D gf180mcu_fd_sc_mcu7t5v0__oai21_1
*I *815:A2 I *D gf180mcu_fd_sc_mcu7t5v0__nor2_1
*I *783:Z O *D gf180mcu_fd_sc_mcu7t5v0__xor2_1
*CAP
1 *785:A2 0.000367261
2 *815:A2 0.000351669
3 *783:Z 0
4 *81:6 0.000718929
5 *785:A2 *761:A1 0
6 *785:A2 *763:A1 0
7 *785:A2 *885:RN 0.000145612
8 *785:A2 *139:20 0.000286386
9 *815:A2 *761:A1 0
10 *815:A2 *763:A1 0
11 *815:A2 *885:RN 5.08425e-05
12 *815:A2 *132:123 0
13 *865:D *785:A2 0.000286386
14 *882:D *785:A2 2.17099e-05
*RES
1 *783:Z *81:6 9 
2 *81:6 *815:A2 11.25 
3 *81:6 *785:A2 12.78 
*END

*D_NET *82 0.00106078
*CONN
*I *785:B I *D gf180mcu_fd_sc_mcu7t5v0__oai21_1
*I *784:ZN O *D gf180mcu_fd_sc_mcu7t5v0__nand2_1
*CAP
1 *785:B 5.41329e-05
2 *784:ZN 5.41329e-05
3 *785:B *761:A1 0.000546617
4 *785:B *761:A2 0.000320271
5 *882:D *785:B 8.56272e-05
*RES
1 *784:ZN *785:B 19.71 
*END

*D_NET *83 0.000249853
*CONN
*I *788:B I *D gf180mcu_fd_sc_mcu7t5v0__oai21_1
*I *786:ZN O *D gf180mcu_fd_sc_mcu7t5v0__nand3_1
*CAP
1 *788:B 5.92788e-05
2 *786:ZN 5.92788e-05
3 *788:B *866:CLK 0
4 *788:B *182:30 9.85004e-05
5 *788:B *191:22 2.81341e-05
6 *866:D *788:B 4.6613e-06
*RES
1 *786:ZN *788:B 9.54 
*END

*D_NET *84 0.00462341
*CONN
*I *840:A2 I *D gf180mcu_fd_sc_mcu7t5v0__oai22_1
*I *788:A2 I *D gf180mcu_fd_sc_mcu7t5v0__oai21_1
*I *787:ZN O *D gf180mcu_fd_sc_mcu7t5v0__nand2_1
*CAP
1 *840:A2 0.000860981
2 *788:A2 0.000511359
3 *787:ZN 3.44897e-05
4 *84:6 0.00140683
5 *788:A2 *766:A1 2.65444e-06
6 *788:A2 *867:RN 2.14747e-05
7 *788:A2 *928:I 0.000158788
8 *788:A2 *182:30 3.38425e-05
9 *788:A2 *182:39 1.32722e-05
10 *840:A2 *787:A2 4.80438e-05
11 *840:A2 *821:A3 0.000324589
12 *840:A2 *822:I 3.90511e-05
13 *840:A2 *824:A2 0.000345225
14 *840:A2 *840:B1 0.000432095
15 *840:A2 *104:8 6.48661e-05
16 *840:A2 *104:14 5.57428e-05
17 *840:A2 *133:31 7.84068e-05
18 *840:A2 *155:12 9.04462e-05
19 *857:D *840:A2 2.49806e-06
20 *876:D *840:A2 1.58709e-05
21 *65:14 *788:A2 0
22 *65:14 *840:A2 0
23 *65:20 *840:A2 4.15093e-05
24 *66:53 *840:A2 4.13695e-05
*RES
1 *787:ZN *84:6 4.77 
2 *84:6 *788:A2 8.28 
3 *84:6 *840:A2 12.24 
*END

*D_NET *85 0.0122738
*CONN
*I *840:B1 I *D gf180mcu_fd_sc_mcu7t5v0__oai22_1
*I *824:B I *D gf180mcu_fd_sc_mcu7t5v0__oai21_1
*I *826:A1 I *D gf180mcu_fd_sc_mcu7t5v0__aoi22_1
*I *791:A1 I *D gf180mcu_fd_sc_mcu7t5v0__nor2_1
*I *820:A2 I *D gf180mcu_fd_sc_mcu7t5v0__oai22_1
*I *789:ZN O *D gf180mcu_fd_sc_mcu7t5v0__nand2_1
*CAP
1 *840:B1 0.000499123
2 *824:B 2.42982e-05
3 *826:A1 0
4 *791:A1 0.000811946
5 *820:A2 0.000736665
6 *789:ZN 8.65828e-05
7 *85:55 0.0007376
8 *85:22 0.00167346
9 *85:16 0.000373331
10 *85:10 0.000549241
11 *791:A1 *826:B1 6.1299e-06
12 *791:A1 *866:CLK 5.45276e-05
13 *820:A2 *749:I 6.68757e-05
14 *820:A2 *820:B2 0
15 *820:A2 *826:B2 0.000634544
16 *820:A2 *878:CLK 0
17 *824:B *181:8 0.000223401
18 *840:B1 *821:A2 0.000248193
19 *840:B1 *821:A3 0.000354738
20 *840:B1 *822:I 8.49143e-05
21 *840:B1 *823:A1 3.54166e-05
22 *840:B1 *824:A2 8.9944e-05
23 *840:B1 *106:8 0.000635879
24 *840:B1 *133:31 1.79237e-05
25 *840:B1 *153:29 0
26 *840:B1 *153:40 0
27 *840:B1 *154:27 0.000169524
28 *840:B1 *155:12 9.04462e-05
29 *840:B1 *172:22 3.17451e-05
30 *85:10 *181:8 6.31783e-05
31 *85:10 *191:22 0.000365454
32 *85:16 *188:10 0
33 *85:16 *191:22 2.37143e-05
34 *85:22 *826:B1 2.60586e-05
35 *85:22 *188:10 6.19076e-05
36 *85:22 *191:22 1.00177e-05
37 *85:55 *823:A1 0
38 *85:55 *181:8 0.000723932
39 *789:A2 *85:10 4.83522e-05
40 *789:A2 *85:55 0
41 *825:A4 *85:55 1.50885e-05
42 *840:A1 *840:B1 1.61174e-05
43 *840:A2 *840:B1 0.000432095
44 *877:D *820:A2 0
45 *878:D *820:A2 0.000916111
46 *878:D *85:22 0.00037097
47 *879:D *820:A2 0
48 *66:53 *824:B 0.000216245
49 *66:53 *85:55 0.00074808
*RES
1 *789:ZN *85:10 10.26 
2 *85:10 *85:16 6.12 
3 *85:16 *85:22 5.94 
4 *85:22 *820:A2 16.11 
5 *85:22 *791:A1 14.31 
6 *85:16 *826:A1 4.5 
7 *85:10 *85:55 7.56 
8 *85:55 *824:B 5.13 
9 *85:55 *840:B1 19.62 
*END

*D_NET *86 0.00224687
*CONN
*I *791:A2 I *D gf180mcu_fd_sc_mcu7t5v0__nor2_1
*I *790:ZN O *D gf180mcu_fd_sc_mcu7t5v0__nor2_1
*CAP
1 *791:A2 0.000247088
2 *790:ZN 0.000247088
3 *791:A2 *786:A3 2.17099e-05
4 *791:A2 *867:CLK 5.58585e-05
5 *791:A2 *182:22 0.000905787
6 *791:A2 *182:30 0
7 *791:A2 *216:14 0.000142047
8 *791:A2 *216:20 0.00062729
*RES
1 *790:ZN *791:A2 21.78 
*END

*D_NET *87 0.00310091
*CONN
*I *795:A2 I *D gf180mcu_fd_sc_mcu7t5v0__xor2_1
*I *794:A2 I *D gf180mcu_fd_sc_mcu7t5v0__xnor2_1
*I *792:ZN O *D gf180mcu_fd_sc_mcu7t5v0__nand3_1
*CAP
1 *795:A2 0.000184598
2 *794:A2 0.000322768
3 *792:ZN 0.00013817
4 *794:A2 *792:A1 2.63343e-05
5 *794:A2 *797:A1 0.000299714
6 *794:A2 *844:A2 2.70694e-05
7 *794:A2 *126:41 0.000151455
8 *794:A2 *141:36 0.000622546
9 *795:A2 *795:A1 0.000882939
10 *795:A2 *132:93 0.000210406
11 *795:A2 *141:36 6.2979e-05
12 *793:A4 *794:A2 0.000171937
*RES
1 *792:ZN *794:A2 20.43 
2 *794:A2 *795:A2 11.61 
*END

*D_NET *88 0.00183042
*CONN
*I *799:A2 I *D gf180mcu_fd_sc_mcu7t5v0__xnor2_1
*I *800:A2 I *D gf180mcu_fd_sc_mcu7t5v0__xor2_1
*I *793:ZN O *D gf180mcu_fd_sc_mcu7t5v0__nand4_1
*CAP
1 *799:A2 0.00016502
2 *800:A2 7.6331e-05
3 *793:ZN 0.000103196
4 *88:8 0.000344546
5 *799:A2 *798:A4 0.00012775
6 *799:A2 *829:A1 0.000346693
7 *799:A2 *829:A2 2.08301e-05
8 *799:A2 *132:78 9.35284e-05
9 *799:A2 *132:82 8.06006e-05
10 *799:A2 *132:84 1.0415e-05
11 *799:A2 *141:36 2.37543e-05
12 *800:A2 *793:A2 2.2902e-05
13 *800:A2 *798:A4 0.000135666
14 *800:A2 *141:36 1.09026e-05
15 *88:8 *829:A1 9.07674e-05
16 *88:8 *112:18 0.000175108
17 *88:8 *132:93 2.40933e-06
*RES
1 *793:ZN *88:8 10.17 
2 *88:8 *800:A2 9.81 
3 *88:8 *799:A2 11.16 
*END

*D_NET *89 0.00176972
*CONN
*I *829:A1 I *D gf180mcu_fd_sc_mcu7t5v0__oai211_1
*I *794:ZN O *D gf180mcu_fd_sc_mcu7t5v0__xnor2_1
*CAP
1 *829:A1 0.000208676
2 *794:ZN 0.000208676
3 *829:A1 *798:A4 5.12225e-05
4 *829:A1 *829:A2 0.000318248
5 *829:A1 *829:C 0.000435201
6 *829:A1 *112:18 2.41308e-05
7 *829:A1 *132:84 5.12457e-05
8 *829:A1 *132:93 3.48604e-05
9 *799:A2 *829:A1 0.000346693
10 *88:8 *829:A1 9.07674e-05
*RES
1 *794:ZN *829:A1 21.06 
*END

*D_NET *90 0.0043331
*CONN
*I *796:A2 I *D gf180mcu_fd_sc_mcu7t5v0__nor2_1
*I *842:A2 I *D gf180mcu_fd_sc_mcu7t5v0__oai21_1
*I *795:Z O *D gf180mcu_fd_sc_mcu7t5v0__xor2_1
*CAP
1 *796:A2 0
2 *842:A2 0.000885903
3 *795:Z 0.000234768
4 *90:8 0.00112067
5 *842:A2 *833:B1 0.000174415
6 *842:A2 *839:A2 0.000826346
7 *842:A2 *839:B 9.41581e-06
8 *842:A2 *942:I 1.24166e-05
9 *90:8 *796:A1 0.000209514
10 *835:A1 *842:A2 0.000150744
11 *838:A3 *842:A2 0.000288244
12 *853:D *842:A2 4.109e-05
13 *856:D *842:A2 2.89427e-06
14 *858:D *842:A2 0.000163093
15 *70:20 *842:A2 0.000213587
*RES
1 *795:Z *90:8 11.43 
2 *90:8 *842:A2 26.01 
3 *90:8 *796:A2 9 
*END

*D_NET *91 0.00428011
*CONN
*I *798:A4 I *D gf180mcu_fd_sc_mcu7t5v0__nor4_4
*I *797:ZN O *D gf180mcu_fd_sc_mcu7t5v0__nand2_1
*CAP
1 *798:A4 0.000754639
2 *797:ZN 0.000754639
3 *798:A4 *793:A2 2.19725e-05
4 *798:A4 *797:A2 5.00297e-05
5 *798:A4 *804:A1 0.000237716
6 *798:A4 *806:A1 0.000154296
7 *798:A4 *806:A2 0.000905787
8 *798:A4 *829:A2 0.000119878
9 *798:A4 *829:C 0.000234525
10 *798:A4 *930:I 0
11 *798:A4 *141:36 0
12 *798:A4 *142:10 0.000346684
13 *798:A4 *142:16 1.39909e-05
14 *798:A4 *212:12 0
15 *799:A2 *798:A4 0.00012775
16 *800:A2 *798:A4 0.000135666
17 *829:A1 *798:A4 5.12225e-05
18 *66:32 *798:A4 0.000371316
*RES
1 *797:ZN *798:A4 27.72 
*END

*D_NET *92 0.00415431
*CONN
*I *804:A2 I *D gf180mcu_fd_sc_mcu7t5v0__xnor2_1
*I *802:A2 I *D gf180mcu_fd_sc_mcu7t5v0__nand2_1
*I *803:A2 I *D gf180mcu_fd_sc_mcu7t5v0__xor2_1
*I *798:ZN O *D gf180mcu_fd_sc_mcu7t5v0__nor4_4
*CAP
1 *804:A2 8.99117e-05
2 *802:A2 0.000413292
3 *803:A2 0
4 *798:ZN 0.000262063
5 *92:6 0.000585443
6 *802:A2 *802:A1 0.000100113
7 *802:A2 *804:A1 7.55765e-06
8 *802:A2 *126:10 4.76091e-05
9 *802:A2 *126:20 3.08015e-05
10 *802:A2 *143:25 3.02306e-05
11 *804:A2 *804:A1 0.000586561
12 *804:A2 *829:B 2.32439e-05
13 *804:A2 *144:8 0
14 *92:6 *804:A1 0.00010563
15 *92:6 *829:B 0.00131211
16 *798:A3 *804:A2 0.000177559
17 *798:A3 *92:6 0.000348345
18 *870:D *802:A2 3.38425e-05
19 *870:D *92:6 0
*RES
1 *798:ZN *92:6 8.19 
2 *92:6 *803:A2 4.5 
3 *92:6 *802:A2 7.65 
4 *798:ZN *804:A2 10.53 
*END

*D_NET *93 0.000701377
*CONN
*I *829:A2 I *D gf180mcu_fd_sc_mcu7t5v0__oai211_1
*I *799:ZN O *D gf180mcu_fd_sc_mcu7t5v0__xnor2_1
*CAP
1 *829:A2 7.48171e-05
2 *799:ZN 7.48171e-05
3 *829:A2 *829:B 7.191e-07
4 *829:A2 *112:18 9.20679e-05
5 *829:A2 *126:28 0
6 *798:A4 *829:A2 0.000119878
7 *799:A2 *829:A2 2.08301e-05
8 *829:A1 *829:A2 0.000318248
*RES
1 *799:ZN *829:A2 19.35 
*END

*D_NET *94 0.00495441
*CONN
*I *801:A2 I *D gf180mcu_fd_sc_mcu7t5v0__nor2_1
*I *844:A2 I *D gf180mcu_fd_sc_mcu7t5v0__oai21_1
*I *800:Z O *D gf180mcu_fd_sc_mcu7t5v0__xor2_1
*CAP
1 *801:A2 0
2 *844:A2 0.000857171
3 *800:Z 0.000360759
4 *94:12 0.00121793
5 *844:A2 *792:A1 6.1578e-05
6 *844:A2 *796:A1 4.85425e-05
7 *844:A2 *839:A2 0.00016741
8 *844:A2 *868:RN 0.00115633
9 *844:A2 *930:I 9.2834e-05
10 *844:A2 *126:41 6.18244e-05
11 *844:A2 *141:36 0
12 *94:12 *792:A2 0.000112623
13 *94:12 *113:26 0.000207661
14 *94:12 *212:43 6.68757e-05
15 *794:A2 *844:A2 2.70694e-05
16 *869:D *844:A2 0.000515801
*RES
1 *800:Z *94:12 7.38 
2 *94:12 *844:A2 22.41 
3 *94:12 *801:A2 4.5 
*END

*D_NET *95 0.00734324
*CONN
*I *806:A2 I *D gf180mcu_fd_sc_mcu7t5v0__xor2_1
*I *802:ZN O *D gf180mcu_fd_sc_mcu7t5v0__nand2_1
*CAP
1 *806:A2 0.000657084
2 *802:ZN 0.000657084
3 *806:A2 *802:A1 0.000308347
4 *806:A2 *804:A1 0.000362665
5 *806:A2 *805:A2 0.00197236
6 *806:A2 *806:A1 9.84776e-05
7 *806:A2 *807:A2 0.000538909
8 *806:A2 *850:A1 6.5235e-06
9 *806:A2 *913:I 0.000426091
10 *806:A2 *97:6 0.000586561
11 *806:A2 *142:10 0.0004024
12 *806:A2 *143:10 0.000233327
13 *806:A2 *143:25 0.000187619
14 *798:A4 *806:A2 0.000905787
*RES
1 *802:ZN *806:A2 30.69 
*END

*D_NET *96 0.00391247
*CONN
*I *829:B I *D gf180mcu_fd_sc_mcu7t5v0__oai211_1
*I *803:Z O *D gf180mcu_fd_sc_mcu7t5v0__xor2_1
*CAP
1 *829:B 0.000863757
2 *803:Z 0.000863757
3 *829:B *798:A2 0.000143583
4 *829:B *113:26 2.75959e-05
5 *829:B *126:28 0.000169416
6 *829:B *132:78 0
7 *829:B *142:10 0.000122395
8 *829:B *142:16 0.000135281
9 *829:B *144:8 0.000124614
10 *829:B *189:10 0
11 *829:B *212:12 0.000104523
12 *798:A3 *829:B 2.14748e-05
13 *804:A2 *829:B 2.32439e-05
14 *829:A2 *829:B 7.191e-07
15 *870:D *829:B 0
16 *92:6 *829:B 0.00131211
*RES
1 *803:Z *829:B 27.45 
*END

*D_NET *97 0.00955301
*CONN
*I *805:A2 I *D gf180mcu_fd_sc_mcu7t5v0__nor2_1
*I *846:A2 I *D gf180mcu_fd_sc_mcu7t5v0__oai21_1
*I *804:ZN O *D gf180mcu_fd_sc_mcu7t5v0__xnor2_1
*CAP
1 *805:A2 0.000609499
2 *846:A2 0.000325824
3 *804:ZN 1.76501e-05
4 *97:6 0.000952973
5 *805:A2 *775:A2 0.000372597
6 *805:A2 *807:A1 0.000104836
7 *805:A2 *850:A1 3.07932e-05
8 *805:A2 *861:CLK 0.00030411
9 *805:A2 *913:I 0.000286386
10 *805:A2 *98:12 2.8591e-05
11 *805:A2 *126:20 1.24166e-05
12 *805:A2 *152:22 0.000107798
13 *805:A2 *175:85 1.61174e-05
14 *846:A2 *806:A1 0
15 *846:A2 *846:B 0.000515792
16 *846:A2 *870:RN 4.03755e-05
17 *846:A2 *871:CLK 0.000601513
18 *846:A2 *136:37 0.000601531
19 *846:A2 *189:19 1.3026e-05
20 *97:6 *913:I 0.000578516
21 *806:A2 *805:A2 0.00197236
22 *806:A2 *97:6 0.000586561
23 *860:D *846:A2 0
24 *870:D *805:A2 0.000247093
25 *871:D *805:A2 0.00122665
*RES
1 *804:ZN *97:6 6.03 
2 *97:6 *846:A2 17.91 
3 *97:6 *805:A2 23.67 
*END

*D_NET *98 0.00593259
*CONN
*I *807:A2 I *D gf180mcu_fd_sc_mcu7t5v0__nor2_1
*I *848:A2 I *D gf180mcu_fd_sc_mcu7t5v0__oai21_1
*I *806:Z O *D gf180mcu_fd_sc_mcu7t5v0__xor2_1
*CAP
1 *807:A2 0.000522364
2 *848:A2 0
3 *806:Z 0.00126897
4 *98:12 0.00179134
5 *807:A2 *802:A1 5.61471e-05
6 *807:A2 *850:A1 0.000145424
7 *807:A2 *850:A2 0
8 *807:A2 *143:10 0.000230031
9 *807:A2 *152:22 0
10 *98:12 *844:B 0
11 *98:12 *846:B 0
12 *98:12 *850:A1 1.0415e-05
13 *98:12 *861:CLK 0.000154581
14 *98:12 *870:RN 0.000230432
15 *98:12 *136:8 0.000146698
16 *98:12 *136:26 0.000115511
17 *98:12 *136:33 9.34006e-05
18 *98:12 *143:10 5.36351e-05
19 *805:A2 *98:12 2.8591e-05
20 *806:A2 *807:A2 0.000538909
21 *859:D *98:12 4.31393e-06
22 *861:D *98:12 0.000444513
23 *862:D *807:A2 0
24 *871:D *807:A2 9.73144e-05
25 *871:D *98:12 0
*RES
1 *806:Z *98:12 15.12 
2 *98:12 *848:A2 4.5 
3 *98:12 *807:A2 18.72 
*END

*D_NET *99 0.000924697
*CONN
*I *830:A1 I *D gf180mcu_fd_sc_mcu7t5v0__oai211_1
*I *808:Z O *D gf180mcu_fd_sc_mcu7t5v0__xor2_1
*CAP
1 *830:A1 0.000275255
2 *808:Z 0.000275255
3 *830:A1 *830:A2 3.08895e-05
4 *830:A1 *113:26 0.000208373
5 *830:A1 *211:26 7.58346e-05
6 *777:A2 *830:A1 0
7 *830:C *830:A1 5.90896e-05
*RES
1 *808:Z *830:A1 11.34 
*END

*D_NET *100 0.00473361
*CONN
*I *850:A2 I *D gf180mcu_fd_sc_mcu7t5v0__oai21_1
*I *810:A2 I *D gf180mcu_fd_sc_mcu7t5v0__nor2_1
*I *809:ZN O *D gf180mcu_fd_sc_mcu7t5v0__xnor2_1
*CAP
1 *850:A2 0.000790192
2 *810:A2 0.000797233
3 *809:ZN 0.00158743
4 *810:A2 *774:A1 0
5 *810:A2 *810:A1 9.84908e-05
6 *810:A2 *811:A1 0
7 *810:A2 *813:A2 0.000128746
8 *810:A2 *852:A2 5.65038e-05
9 *810:A2 *914:I 9.05146e-05
10 *810:A2 *175:29 0
11 *810:A2 *175:85 0
12 *810:A2 *197:23 8.31054e-06
13 *810:A2 *216:10 4.82191e-05
14 *850:A2 *830:B 0.000591253
15 *850:A2 *175:85 0.000160708
16 *850:A2 *211:26 7.84068e-05
17 *807:A2 *850:A2 0
18 *830:C *850:A2 6.08811e-05
19 *873:D *810:A2 0
20 *3:22 *810:A2 0.000236727
*RES
1 *809:ZN *810:A2 24.66 
2 *809:ZN *850:A2 24.48 
*END

*D_NET *101 0.000202633
*CONN
*I *830:A2 I *D gf180mcu_fd_sc_mcu7t5v0__oai211_1
*I *811:ZN O *D gf180mcu_fd_sc_mcu7t5v0__xnor2_1
*CAP
1 *830:A2 8.58718e-05
2 *811:ZN 8.58718e-05
3 *830:A1 *830:A2 3.08895e-05
*RES
1 *811:ZN *830:A2 9.63 
*END

*D_NET *102 0.00538396
*CONN
*I *852:A2 I *D gf180mcu_fd_sc_mcu7t5v0__oai21_1
*I *813:A2 I *D gf180mcu_fd_sc_mcu7t5v0__nor2_1
*I *812:Z O *D gf180mcu_fd_sc_mcu7t5v0__xor2_1
*CAP
1 *852:A2 0.000862316
2 *813:A2 0.0004507
3 *812:Z 0
4 *102:6 0.00131302
5 *813:A2 *813:A1 3.98088e-05
6 *813:A2 *132:33 0.000169933
7 *813:A2 *197:23 0.000656436
8 *852:A2 *776:A1 0.000822739
9 *852:A2 *147:12 0.000448058
10 *776:A2 *852:A2 2.63437e-05
11 *782:A2 *852:A2 0.000226001
12 *782:B *852:A2 1.16291e-05
13 *810:A2 *813:A2 0.000128746
14 *810:A2 *852:A2 5.65038e-05
15 *814:A1 *852:A2 2.68039e-05
16 *3:22 *813:A2 0.000144929
*RES
1 *812:Z *102:6 9 
2 *102:6 *813:A2 13.95 
3 *102:6 *852:A2 17.55 
*END

*D_NET *103 0.00293963
*CONN
*I *818:B I *D gf180mcu_fd_sc_mcu7t5v0__oai21_1
*I *816:ZN O *D gf180mcu_fd_sc_mcu7t5v0__nand3_1
*CAP
1 *818:B 8.94706e-05
2 *816:ZN 8.94706e-05
3 *818:B *748:I 0.000287594
4 *818:B *816:A1 0.00115829
5 *818:B *825:A3 9.04462e-05
6 *818:B *154:19 0.00103455
7 *818:B *181:8 0.000189809
*RES
1 *816:ZN *818:B 12.69 
*END

*D_NET *104 0.00456541
*CONN
*I *818:A2 I *D gf180mcu_fd_sc_mcu7t5v0__oai21_1
*I *828:A2 I *D gf180mcu_fd_sc_mcu7t5v0__oai31_1
*I *820:B1 I *D gf180mcu_fd_sc_mcu7t5v0__oai22_1
*I *817:ZN O *D gf180mcu_fd_sc_mcu7t5v0__nand2_1
*CAP
1 *818:A2 0
2 *828:A2 0.00025191
3 *820:B1 0.000165673
4 *817:ZN 0.000302456
5 *104:14 0.000922316
6 *104:8 0.00080719
7 *820:B1 *749:I 0
8 *820:B1 *820:B2 0.000393144
9 *820:B1 *133:10 0.000226581
10 *828:A2 *825:A1 2.43273e-05
11 *828:A2 *878:RN 7.12056e-05
12 *828:A2 *188:12 0.000362403
13 *104:8 *824:A2 7.12082e-05
14 *104:14 *749:I 0
15 *104:14 *825:A1 0.000146183
16 *104:14 *133:10 3.42509e-05
17 *104:14 *181:32 6.08466e-05
18 *840:A2 *104:8 6.48661e-05
19 *840:A2 *104:14 5.57428e-05
20 *876:D *104:14 0.00034797
21 *66:53 *104:8 0.000247817
22 *66:53 *104:14 9.3226e-06
*RES
1 *817:ZN *104:8 7.02 
2 *104:8 *104:14 8.82 
3 *104:14 *820:B1 11.25 
4 *104:14 *828:A2 11.43 
5 *104:8 *818:A2 4.5 
*END

*D_NET *105 0.0017897
*CONN
*I *820:B2 I *D gf180mcu_fd_sc_mcu7t5v0__oai22_1
*I *819:Z O *D gf180mcu_fd_sc_mcu7t5v0__xor2_1
*CAP
1 *820:B2 0.000349262
2 *819:Z 0.000349262
3 *820:B2 *820:A1 0
4 *820:B2 *876:RN 0.000194062
5 *820:B2 *133:10 0.000393144
6 *820:B2 *188:12 0.000110827
7 *820:A2 *820:B2 0
8 *820:B1 *820:B2 0.000393144
*RES
1 *819:Z *820:B2 21.6 
*END

*D_NET *106 0.00360967
*CONN
*I *822:I I *D gf180mcu_fd_sc_mcu7t5v0__clkinv_1
*I *823:A2 I *D gf180mcu_fd_sc_mcu7t5v0__nand2_1
*I *828:A3 I *D gf180mcu_fd_sc_mcu7t5v0__oai31_1
*I *821:ZN O *D gf180mcu_fd_sc_mcu7t5v0__nand3_1
*CAP
1 *822:I 0.000119649
2 *823:A2 0.000136835
3 *828:A3 0.000117532
4 *821:ZN 0
5 *106:8 0.000449571
6 *106:4 0.000314853
7 *822:I *172:22 0
8 *823:A2 *823:A1 0.000365454
9 *823:A2 *878:RN 0.000123915
10 *823:A2 *181:8 6.76694e-05
11 *823:A2 *191:22 3.22348e-05
12 *828:A3 *827:A2 0.000100114
13 *828:A3 *878:RN 0.000364888
14 *828:A3 *188:10 0.000112667
15 *106:8 *823:A1 1.70018e-05
16 *106:8 *827:A2 0.000255499
17 *106:8 *172:22 6.0354e-06
18 *106:8 *188:10 1.91657e-05
19 *824:A1 *106:8 5.36405e-05
20 *825:A4 *823:A2 0.000193098
21 *840:A2 *822:I 3.90511e-05
22 *840:B1 *822:I 8.49143e-05
23 *840:B1 *106:8 0.000635879
*RES
1 *821:ZN *106:4 4.5 
2 *106:4 *106:8 7.11 
3 *106:8 *828:A3 10.53 
4 *106:8 *823:A2 11.07 
5 *106:4 *822:I 5.31 
*END

*D_NET *107 0.000867693
*CONN
*I *824:A2 I *D gf180mcu_fd_sc_mcu7t5v0__oai21_1
*I *822:ZN O *D gf180mcu_fd_sc_mcu7t5v0__clkinv_1
*CAP
1 *824:A2 0.00012995
2 *822:ZN 0.00012995
3 *824:A2 *172:22 0.000101415
4 *840:A2 *824:A2 0.000345225
5 *840:B1 *824:A2 8.9944e-05
6 *104:8 *824:A2 7.12082e-05
*RES
1 *822:ZN *824:A2 19.62 
*END

*D_NET *108 0.000114966
*CONN
*I *826:A2 I *D gf180mcu_fd_sc_mcu7t5v0__aoi22_1
*I *823:ZN O *D gf180mcu_fd_sc_mcu7t5v0__nand2_1
*CAP
1 *826:A2 5.74829e-05
2 *823:ZN 5.74829e-05
*RES
1 *823:ZN *826:A2 9.45 
*END

*D_NET *109 0.00297657
*CONN
*I *827:A2 I *D gf180mcu_fd_sc_mcu7t5v0__nand2_1
*I *824:ZN O *D gf180mcu_fd_sc_mcu7t5v0__oai21_1
*CAP
1 *827:A2 0.000291104
2 *824:ZN 0.000291104
3 *827:A2 *749:I 4.29461e-05
4 *827:A2 *825:A2 6.14822e-05
5 *827:A2 *827:A1 0.000119878
6 *827:A2 *828:B 0.00032797
7 *827:A2 *878:RN 0.000382884
8 *827:A2 *153:42 2.6575e-05
9 *827:A2 *156:27 0.00071647
10 *827:A2 *188:10 1.80358e-05
11 *824:A1 *827:A2 5.13763e-05
12 *828:A3 *827:A2 0.000100114
13 *879:D *827:A2 0.000291133
14 *106:8 *827:A2 0.000255499
*RES
1 *824:ZN *827:A2 23.67 
*END

*D_NET *110 0.00119968
*CONN
*I *826:B1 I *D gf180mcu_fd_sc_mcu7t5v0__aoi22_1
*I *825:ZN O *D gf180mcu_fd_sc_mcu7t5v0__nand4_1
*CAP
1 *826:B1 0.000451372
2 *825:ZN 0.000451372
3 *826:B1 *878:RN 3.01487e-05
4 *826:B1 *879:RN 4.45837e-05
5 *826:B1 *156:10 0.000142705
6 *826:B1 *188:12 4.73144e-05
7 *826:B1 *191:22 0
8 *791:A1 *826:B1 6.1299e-06
9 *85:22 *826:B1 2.60586e-05
*RES
1 *825:ZN *826:B1 12.06 
*END

*D_NET *111 0.000656214
*CONN
*I *828:B I *D gf180mcu_fd_sc_mcu7t5v0__oai31_1
*I *827:ZN O *D gf180mcu_fd_sc_mcu7t5v0__nand2_1
*CAP
1 *828:B 1.36364e-07
2 *827:ZN 1.36364e-07
3 *828:B *827:A1 0.00032797
4 *827:A2 *828:B 0.00032797
*RES
1 *827:ZN *828:B 18.81 
*END

*D_NET *112 0.00969181
*CONN
*I *831:A1 I *D gf180mcu_fd_sc_mcu7t5v0__and2_1
*I *833:B1 I *D gf180mcu_fd_sc_mcu7t5v0__oai32_1
*I *832:A1 I *D gf180mcu_fd_sc_mcu7t5v0__aoi21_1
*I *829:ZN O *D gf180mcu_fd_sc_mcu7t5v0__oai211_1
*CAP
1 *831:A1 0
2 *833:B1 0.000321277
3 *832:A1 8.66868e-05
4 *829:ZN 0.000765659
5 *112:29 0.000662636
6 *112:18 0.00119371
7 *832:A1 *751:I 0.000358559
8 *832:A1 *832:A2 0.000165828
9 *832:A1 *834:A1 0
10 *832:A1 *857:RN 1.23715e-05
11 *833:B1 *942:I 0.00015073
12 *833:B1 *125:21 0.000410302
13 *833:B1 *125:27 0.000205311
14 *112:18 *751:I 0.000391795
15 *112:18 *780:A1 0.000219114
16 *112:18 *793:A1 6.83517e-05
17 *112:18 *793:A2 0.000278756
18 *112:18 *832:A2 0.000197289
19 *112:18 *839:A2 0.000496776
20 *112:18 *868:RN 0.000133015
21 *112:18 *895:I 0.000108709
22 *112:18 *113:26 0.000398901
23 *112:18 *126:28 9.54643e-05
24 *112:18 *132:93 0
25 *112:18 *141:10 0.0010193
26 *112:18 *180:10 0.000460717
27 *112:29 *751:I 8.95802e-05
28 *112:29 *942:I 0.00011586
29 *780:A2 *112:18 2.76357e-05
30 *829:A1 *112:18 2.41308e-05
31 *829:A2 *112:18 9.20679e-05
32 *832:B *832:A1 1.51153e-05
33 *832:B *112:18 2.22695e-05
34 *835:A1 *833:B1 9.04462e-05
35 *838:A3 *833:B1 7.41234e-06
36 *842:A2 *833:B1 0.000174415
37 *856:D *833:B1 4.23555e-05
38 *910:I *833:B1 0.000179038
39 *910:I *112:29 9.63432e-05
40 *66:96 *112:29 0.000191347
41 *70:20 *833:B1 0.000147435
42 *88:8 *112:18 0.000175108
*RES
1 *829:ZN *112:18 24.39 
2 *112:18 *832:A1 5.85 
3 *112:18 *112:29 7.83 
4 *112:29 *833:B1 12.96 
5 *112:29 *831:A1 9 
*END

*D_NET *113 0.0126464
*CONN
*I *831:A2 I *D gf180mcu_fd_sc_mcu7t5v0__and2_1
*I *832:A2 I *D gf180mcu_fd_sc_mcu7t5v0__aoi21_1
*I *830:ZN O *D gf180mcu_fd_sc_mcu7t5v0__oai211_1
*CAP
1 *831:A2 0.000520332
2 *832:A2 0.000282337
3 *830:ZN 0.00159038
4 *113:26 0.00239305
5 *831:A2 *180:10 0
6 *832:A2 *857:RN 0.000288855
7 *113:26 *775:A2 0.000240831
8 *113:26 *798:A2 0.000135666
9 *113:26 *807:A1 0.000106536
10 *113:26 *869:CLK 0.00135889
11 *113:26 *927:I 0.000235076
12 *113:26 *126:28 0.000470405
13 *113:26 *132:69 9.31546e-05
14 *113:26 *132:78 0.000404408
15 *113:26 *141:10 0.000248831
16 *113:26 *142:16 0.000496785
17 *113:26 *152:22 5.97899e-05
18 *113:26 *175:8 6.68593e-05
19 *113:26 *175:85 0.000480025
20 *113:26 *189:10 0.000137825
21 *113:26 *211:26 0
22 *113:26 *212:12 0
23 *113:26 *212:19 0.000160848
24 *113:26 *212:43 7.65946e-06
25 *769:A3 *113:26 0
26 *780:A2 *831:A2 4.01448e-05
27 *780:A2 *113:26 0.000105712
28 *798:A3 *113:26 0.000163092
29 *829:B *113:26 2.75959e-05
30 *830:A1 *113:26 0.000208373
31 *832:A1 *832:A2 0.000165828
32 *832:B *113:26 3.22122e-05
33 *870:D *113:26 0.000132459
34 *66:32 *113:26 0.00103711
35 *66:96 *831:A2 0.000128424
36 *66:96 *113:26 2.30975e-05
37 *69:12 *831:A2 0
38 *94:12 *113:26 0.000207661
39 *112:18 *832:A2 0.000197289
40 *112:18 *113:26 0.000398901
*RES
1 *830:ZN *113:26 38.7 
2 *113:26 *832:A2 11.7 
3 *113:26 *831:A2 12.78 
*END

*D_NET *114 0.000445947
*CONN
*I *835:A2 I *D gf180mcu_fd_sc_mcu7t5v0__oai21_1
*I *831:Z O *D gf180mcu_fd_sc_mcu7t5v0__and2_1
*CAP
1 *835:A2 0.000171748
2 *831:Z 0.000171748
3 *835:A2 *160:8 8.38699e-05
4 *854:D *835:A2 1.85811e-05
5 *910:I *835:A2 0
*RES
1 *831:Z *835:A2 10.26 
*END

*D_NET *115 0.00693824
*CONN
*I *837:A2 I *D gf180mcu_fd_sc_mcu7t5v0__nor3_1
*I *833:A3 I *D gf180mcu_fd_sc_mcu7t5v0__oai32_1
*I *832:ZN O *D gf180mcu_fd_sc_mcu7t5v0__aoi21_1
*CAP
1 *837:A2 0.000444582
2 *833:A3 0
3 *832:ZN 0.000187617
4 *115:8 0.000632199
5 *837:A2 *837:A1 0.000360642
6 *837:A2 *842:B 6.18244e-05
7 *837:A2 *170:10 0.000227818
8 *837:A2 *170:25 2.63343e-05
9 *837:A2 *172:14 0.000263273
10 *837:A2 *205:12 0
11 *115:8 *751:I 8.25538e-05
12 *115:8 *835:B 0.000244819
13 *115:8 *170:10 0.000230116
14 *115:8 *172:14 0.00260853
15 *835:A1 *115:8 0.00156793
*RES
1 *832:ZN *115:8 15.75 
2 *115:8 *833:A3 9 
3 *115:8 *837:A2 13.14 
*END

*D_NET *116 0.000790356
*CONN
*I *835:B I *D gf180mcu_fd_sc_mcu7t5v0__oai21_1
*I *834:ZN O *D gf180mcu_fd_sc_mcu7t5v0__nand2_1
*CAP
1 *835:B 8.63717e-05
2 *834:ZN 8.63717e-05
3 *835:B *751:I 0.000167288
4 *835:B *172:14 0.000205505
5 *115:8 *835:B 0.000244819
*RES
1 *834:ZN *835:B 19.71 
*END

*D_NET *117 0.000313614
*CONN
*I *837:A3 I *D gf180mcu_fd_sc_mcu7t5v0__nor3_1
*I *836:ZN O *D gf180mcu_fd_sc_mcu7t5v0__nor2_1
*CAP
1 *837:A3 0.000117671
2 *836:ZN 0.000117671
3 *837:A3 *836:A1 4.83522e-05
4 *837:A3 *205:12 0
5 *836:A2 *837:A3 2.99208e-05
*RES
1 *836:ZN *837:A3 9.9 
*END

*D_NET *118 0.00187894
*CONN
*I *839:B I *D gf180mcu_fd_sc_mcu7t5v0__oai31_1
*I *838:ZN O *D gf180mcu_fd_sc_mcu7t5v0__nand3_1
*CAP
1 *839:B 0.000920577
2 *838:ZN 0.000920577
3 *839:B *833:A2 1.78074e-05
4 *839:B *838:A1 2.40933e-06
5 *838:A3 *839:B 8.15289e-06
6 *842:A2 *839:B 9.41581e-06
*RES
1 *838:ZN *839:B 31.86 
*END

*D_NET *119 0.00464607
*CONN
*I *842:B I *D gf180mcu_fd_sc_mcu7t5v0__oai21_1
*I *841:ZN O *D gf180mcu_fd_sc_mcu7t5v0__nand2_1
*CAP
1 *842:B 0.000834001
2 *841:ZN 0.000834001
3 *842:B *833:A2 5.20752e-05
4 *842:B *842:A1 0.00023504
5 *842:B *856:RN 0.00017317
6 *842:B *942:I 0
7 *842:B *170:25 0.000664622
8 *842:B *172:14 2.08042e-05
9 *842:B *185:12 7.76317e-05
10 *842:B *185:16 0.00022733
11 *842:B *205:12 9.84776e-05
12 *836:A2 *842:B 0.000628698
13 *837:A2 *842:B 6.18244e-05
14 *853:D *842:B 6.06389e-05
15 *856:D *842:B 2.63343e-05
16 *858:D *842:B 0.000428029
17 *924:I *842:B 0.000223398
*RES
1 *841:ZN *842:B 28.71 
*END

*D_NET *120 0.00102069
*CONN
*I *844:B I *D gf180mcu_fd_sc_mcu7t5v0__oai21_1
*I *843:ZN O *D gf180mcu_fd_sc_mcu7t5v0__nand2_1
*CAP
1 *844:B 0.000152538
2 *843:ZN 0.000152538
3 *844:B *844:A1 4.82122e-05
4 *844:B *851:A2 0.00035741
5 *844:B *186:10 0.000309993
6 *98:12 *844:B 0
*RES
1 *843:ZN *844:B 19.8 
*END

*D_NET *121 0.00198513
*CONN
*I *846:B I *D gf180mcu_fd_sc_mcu7t5v0__oai21_1
*I *845:ZN O *D gf180mcu_fd_sc_mcu7t5v0__nand2_1
*CAP
1 *846:B 0.00036124
2 *845:ZN 0.00036124
3 *846:B *851:A2 0.000586885
4 *846:A2 *846:B 0.000515792
5 *860:D *846:B 0
6 *871:D *846:B 0.00015997
7 *98:12 *846:B 0
*RES
1 *845:ZN *846:B 21.96 
*END

*D_NET *122 0.000160952
*CONN
*I *848:B I *D gf180mcu_fd_sc_mcu7t5v0__oai21_1
*I *847:ZN O *D gf180mcu_fd_sc_mcu7t5v0__nand2_1
*CAP
1 *848:B 8.0476e-05
2 *847:ZN 8.0476e-05
3 *871:D *848:B 0
*RES
1 *847:ZN *848:B 9.63 
*END

*D_NET *123 0.00035486
*CONN
*I *850:B I *D gf180mcu_fd_sc_mcu7t5v0__oai21_1
*I *849:ZN O *D gf180mcu_fd_sc_mcu7t5v0__nand2_1
*CAP
1 *850:B 0.00017743
2 *849:ZN 0.00017743
3 *850:B *143:10 0
*RES
1 *849:ZN *850:B 19.35 
*END

*D_NET *124 0.00032369
*CONN
*I *852:B I *D gf180mcu_fd_sc_mcu7t5v0__oai21_1
*I *851:ZN O *D gf180mcu_fd_sc_mcu7t5v0__nand2_1
*CAP
1 *852:B 0.000161845
2 *851:ZN 0.000161845
3 *782:B *852:B 0
*RES
1 *851:ZN *852:B 19.35 
*END

*D_NET *125 0.00810992
*CONN
*I *839:A1 I *D gf180mcu_fd_sc_mcu7t5v0__oai31_1
*I *837:A1 I *D gf180mcu_fd_sc_mcu7t5v0__nor3_1
*I *833:A1 I *D gf180mcu_fd_sc_mcu7t5v0__oai32_1
*I *779:A1 I *D gf180mcu_fd_sc_mcu7t5v0__nor2_1
*I *745:ZN O *D gf180mcu_fd_sc_mcu7t5v0__clkinv_1
*CAP
1 *839:A1 0
2 *837:A1 0.000383834
3 *833:A1 6.40434e-05
4 *779:A1 0.000216921
5 *745:ZN 0.000144134
6 *125:27 0.0005232
7 *125:21 0.000214928
8 *125:6 0.000500662
9 *779:A1 *170:10 0.000150744
10 *833:A1 *135:22 3.84416e-05
11 *837:A1 *942:I 0.00074796
12 *125:27 *942:I 0.000157029
13 *833:B1 *125:21 0.000410302
14 *833:B1 *125:27 0.000205311
15 *836:A2 *837:A1 2.36914e-05
16 *837:A2 *837:A1 0.000360642
17 *838:A3 *779:A1 4.45215e-05
18 *838:A3 *125:27 3.73774e-06
19 *855:D *837:A1 0.00107043
20 *856:D *833:A1 0.000213554
21 *856:D *125:27 0.000275357
22 *868:D *125:6 2.5365e-05
23 *910:I *125:21 8.99346e-05
24 *956:I *125:6 0.000459815
25 *956:I *125:21 0
26 *66:96 *125:21 5.46043e-06
27 *69:12 *779:A1 0.000269359
28 *69:12 *125:6 0.000322173
29 *70:20 *837:A1 0.000161754
30 *70:20 *125:21 9.19654e-06
31 *70:20 *125:27 0.00014932
32 *78:6 *779:A1 0.000777646
33 *78:6 *125:6 9.04462e-05
*RES
1 *745:ZN *125:6 6.75 
2 *125:6 *779:A1 7.38 
3 *125:6 *125:21 10.35 
4 *125:21 *125:27 5.76 
5 *125:27 *833:A1 9.63 
6 *125:27 *837:A1 14.22 
7 *125:21 *839:A1 4.5 
*END

*D_NET *126 0.0126117
*CONN
*I *775:A1 I *D gf180mcu_fd_sc_mcu7t5v0__nor4_4
*I *772:A1 I *D gf180mcu_fd_sc_mcu7t5v0__nor3_2
*I *793:A1 I *D gf180mcu_fd_sc_mcu7t5v0__nand4_1
*I *839:A2 I *D gf180mcu_fd_sc_mcu7t5v0__oai31_1
*I *792:A1 I *D gf180mcu_fd_sc_mcu7t5v0__nand3_1
*I *746:ZN O *D gf180mcu_fd_sc_mcu7t5v0__clkinv_1
*CAP
1 *775:A1 8.0476e-05
2 *772:A1 0
3 *793:A1 2.33852e-05
4 *839:A2 0.000952075
5 *792:A1 4.73398e-05
6 *746:ZN 0.000291942
7 *126:41 0.00105809
8 *126:28 0.00069841
9 *126:20 0.001072
10 *126:10 0.000875977
11 *793:A1 *132:93 1.86887e-06
12 *839:A2 *796:A1 0.000714788
13 *839:A2 *868:RN 0.000570169
14 *839:A2 *132:93 3.34818e-05
15 *126:10 *152:14 1.79237e-05
16 *126:20 *773:A3 3.01487e-05
17 *126:20 *775:A2 0.000580898
18 *126:28 *773:A3 0.000216114
19 *126:28 *793:A2 3.98788e-05
20 *126:28 *141:10 5.30751e-05
21 *126:28 *141:19 9.04462e-05
22 *126:28 *142:16 0.00048874
23 *126:28 *189:10 0.000362773
24 *126:28 *212:12 1.19491e-05
25 *126:28 *212:19 5.97457e-06
26 *777:A2 *126:10 0.000172602
27 *793:A4 *792:A1 0.000244819
28 *794:A2 *792:A1 2.63343e-05
29 *794:A2 *126:41 0.000151455
30 *802:A2 *126:10 4.76091e-05
31 *802:A2 *126:20 3.08015e-05
32 *805:A2 *126:20 1.24166e-05
33 *829:A2 *126:28 0
34 *829:B *126:28 0.000169416
35 *842:A2 *839:A2 0.000826346
36 *844:A2 *792:A1 6.1578e-05
37 *844:A2 *839:A2 0.00016741
38 *844:A2 *126:41 6.18244e-05
39 *870:D *126:20 0.000619086
40 *871:D *126:10 5.82191e-05
41 *66:14 *126:20 0.000168237
42 *66:14 *126:28 8.68281e-06
43 *66:32 *126:28 0.000335944
44 *112:18 *793:A1 6.83517e-05
45 *112:18 *839:A2 0.000496776
46 *112:18 *126:28 9.54643e-05
47 *113:26 *126:28 0.000470405
*RES
1 *746:ZN *126:10 7.11 
2 *126:10 *126:20 14.85 
3 *126:20 *126:28 11.97 
4 *126:28 *792:A1 9.81 
5 *126:28 *126:41 5.49 
6 *126:41 *839:A2 34.11 
7 *126:41 *793:A1 4.77 
8 *126:20 *772:A1 4.5 
9 *126:10 *775:A1 5.13 
*END

*D_NET *127 0.00345118
*CONN
*I *773:A3 I *D gf180mcu_fd_sc_mcu7t5v0__nand4_1
*I *798:A2 I *D gf180mcu_fd_sc_mcu7t5v0__nor4_4
*I *747:ZN O *D gf180mcu_fd_sc_mcu7t5v0__clkinv_1
*CAP
1 *773:A3 0.000419107
2 *798:A2 2.71582e-05
3 *747:ZN 0
4 *127:4 0.000446265
5 *773:A3 *767:A1 0
6 *773:A3 *786:A3 0.00023711
7 *773:A3 *152:37 0.000770076
8 *773:A3 *189:10 7.86261e-05
9 *773:A3 *212:19 0.000947323
10 *829:B *798:A2 0.000143583
11 *113:26 *798:A2 0.000135666
12 *126:20 *773:A3 3.01487e-05
13 *126:28 *773:A3 0.000216114
*RES
1 *747:ZN *127:4 4.5 
2 *127:4 *798:A2 14.31 
3 *127:4 *773:A3 18.72 
*END

*D_NET *128 0.0019557
*CONN
*I *819:A2 I *D gf180mcu_fd_sc_mcu7t5v0__xor2_1
*I *820:A1 I *D gf180mcu_fd_sc_mcu7t5v0__oai22_1
*I *748:ZN O *D gf180mcu_fd_sc_mcu7t5v0__clkinv_1
*CAP
1 *819:A2 0.000140825
2 *820:A1 0.000367579
3 *748:ZN 0
4 *128:6 0.000508404
5 *819:A2 *748:I 0.000565405
6 *820:B2 *820:A1 0
7 *877:D *820:A1 0.00037349
*RES
1 *748:ZN *128:6 9 
2 *128:6 *820:A1 11.7 
3 *128:6 *819:A2 10.71 
*END

*D_NET *129 0.00258689
*CONN
*I *826:B2 I *D gf180mcu_fd_sc_mcu7t5v0__aoi22_1
*I *749:ZN O *D gf180mcu_fd_sc_mcu7t5v0__clkinv_1
*CAP
1 *826:B2 0.000313396
2 *749:ZN 0.000313396
3 *820:A2 *826:B2 0.000634544
4 *878:D *826:B2 0.00132555
*RES
1 *749:ZN *826:B2 22.68 
*END

*D_NET *130 0.00171912
*CONN
*I *833:A2 I *D gf180mcu_fd_sc_mcu7t5v0__oai32_1
*I *750:ZN O *D gf180mcu_fd_sc_mcu7t5v0__clkinv_1
*CAP
1 *833:A2 0.0003935
2 *750:ZN 0.0003935
3 *833:A2 *838:A1 0.000451501
4 *833:A2 *135:22 0.000316927
5 *838:A3 *833:A2 0
6 *839:B *833:A2 1.78074e-05
7 *842:B *833:A2 5.20752e-05
8 *853:D *833:A2 8.31276e-05
9 *856:D *833:A2 1.06861e-05
*RES
1 *750:ZN *833:A2 12.69 
*END

*D_NET *131 0.00157713
*CONN
*I *840:B2 I *D gf180mcu_fd_sc_mcu7t5v0__oai22_1
*I *751:ZN O *D gf180mcu_fd_sc_mcu7t5v0__clkinv_1
*CAP
1 *840:B2 0.000273047
2 *751:ZN 0.000273047
3 *66:81 *840:B2 0.000485536
4 *66:96 *840:B2 0.000545498
*RES
1 *751:ZN *840:B2 20.79 
*END

*D_NET *132 0.0152291
*CONN
*I *901:I I *D gf180mcu_fd_sc_mcu7t5v0__clkbuf_16
*I *895:I I *D gf180mcu_fd_sc_mcu7t5v0__clkbuf_16
*I *902:I I *D gf180mcu_fd_sc_mcu7t5v0__clkbuf_16
*I *898:I I *D gf180mcu_fd_sc_mcu7t5v0__clkbuf_16
*I *897:I I *D gf180mcu_fd_sc_mcu7t5v0__clkbuf_16
*I *900:I I *D gf180mcu_fd_sc_mcu7t5v0__clkbuf_16
*I *899:I I *D gf180mcu_fd_sc_mcu7t5v0__clkbuf_16
*I *896:I I *D gf180mcu_fd_sc_mcu7t5v0__clkbuf_16
*I *894:Z O *D gf180mcu_fd_sc_mcu7t5v0__clkbuf_16
*CAP
1 *901:I 7.77068e-05
2 *895:I 0.000151693
3 *902:I 0.000105217
4 *898:I 0
5 *897:I 0.000190243
6 *900:I 0.000161742
7 *899:I 0
8 *896:I 5.21489e-05
9 *894:Z 0.000271129
10 *132:160 0.000330328
11 *132:155 0.000357838
12 *132:123 0.000309591
13 *132:114 0.000367864
14 *132:93 0.000550211
15 *132:84 0.000584683
16 *132:82 0.000154544
17 *132:78 0.000693396
18 *132:69 0.000671393
19 *132:53 0.000541707
20 *132:48 0.000598197
21 *132:37 0.000268264
22 *132:33 0.00102481
23 *132:17 0.000395989
24 *132:13 0.00135147
25 *132:8 0.000302737
26 *895:I *868:RN 0.000411984
27 *895:I *141:10 2.27169e-05
28 *895:I *180:10 8.02376e-06
29 *896:I *766:A1 0.000108428
30 *897:I *868:RN 0.000126948
31 *901:I *211:26 1.47217e-05
32 *132:8 *767:A1 8.65983e-05
33 *132:8 *187:16 5.98937e-05
34 *132:17 *766:A1 0.000384522
35 *132:17 *134:12 0
36 *132:17 *134:21 4.85511e-06
37 *132:17 *187:16 0
38 *132:33 *767:A1 0
39 *132:33 *875:CLK 0.000662462
40 *132:33 *134:21 1.91716e-06
41 *132:33 *187:16 1.39839e-05
42 *132:53 *874:CLK 3.00327e-05
43 *132:53 *140:16 3.12455e-05
44 *132:53 *176:42 3.63092e-05
45 *132:69 *152:22 4.53461e-05
46 *132:78 *798:A1 9.16398e-05
47 *132:78 *870:CLK 0.000180811
48 *132:78 *144:8 0
49 *132:78 *152:22 1.37366e-05
50 *132:78 *212:12 2.75146e-05
51 *132:78 *212:19 2.55905e-05
52 *132:93 *795:A1 3.81868e-05
53 *132:93 *868:RN 0.00026485
54 *132:114 *140:16 3.93738e-05
55 *132:123 *763:A1 0.000204177
56 *132:123 *764:A2 1.86887e-06
57 *132:123 *140:16 0.000104194
58 *132:123 *211:26 0
59 *132:155 *211:26 4.45747e-05
60 *132:160 *211:26 7.07109e-05
61 *773:A4 *896:I 1.65711e-05
62 *773:A4 *132:17 1.46362e-05
63 *783:A2 *901:I 0.000129894
64 *783:A2 *132:160 0.000500188
65 *793:A1 *132:93 1.86887e-06
66 *795:A2 *132:93 0.000210406
67 *799:A2 *132:78 9.35284e-05
68 *799:A2 *132:82 8.06006e-05
69 *799:A2 *132:84 1.0415e-05
70 *813:A2 *132:33 0.000169933
71 *815:A2 *132:123 0
72 *829:A1 *132:84 5.12457e-05
73 *829:A1 *132:93 3.48604e-05
74 *829:B *132:78 0
75 *839:A2 *132:93 3.34818e-05
76 *875:D *901:I 1.29802e-05
77 *875:D *132:33 0
78 *875:D *132:37 0
79 *875:D *132:48 0
80 *875:D *132:160 0.00027125
81 *885:D *132:114 0.0001241
82 *885:D *132:123 3.11287e-05
83 *3:22 *132:33 0
84 *3:22 *132:37 0
85 *3:22 *132:48 0
86 *3:22 *132:53 0
87 *79:10 *897:I 0.000126948
88 *79:10 *132:93 3.62545e-05
89 *88:8 *132:93 2.40933e-06
90 *112:18 *895:I 0.000108709
91 *112:18 *132:93 0
92 *113:26 *132:69 9.31546e-05
93 *113:26 *132:78 0.000404408
*RES
1 *894:Z *132:8 5.94 
2 *132:8 *132:13 0.45 
3 *132:13 *132:17 3.04393 
4 *132:17 *896:I 5.14607 
5 *132:13 *132:33 7.89107 
6 *132:33 *132:37 0.748929 
7 *132:37 *899:I 4.5 
8 *132:37 *132:48 1.17 
9 *132:48 *132:53 3.15 
10 *132:53 *900:I 5.31 
11 *894:Z *132:69 5.21679 
12 *132:69 *132:78 5.54786 
13 *132:78 *132:82 0.665357 
14 *132:82 *132:84 0.671786 
15 *132:84 *132:93 4.39071 
16 *132:93 *897:I 5.2875 
17 *132:82 *898:I 4.5 
18 *900:I *132:114 5.31 
19 *132:114 *132:123 7.38 
20 *132:123 *902:I 9 
21 *897:I *895:I 10.89 
22 *902:I *132:155 5.31 
23 *132:155 *132:160 3.69 
24 *132:160 *901:I 5.31 
*END

*D_NET *133 0.00806112
*CONN
*I *879:CLK I *D gf180mcu_fd_sc_mcu7t5v0__dffrnq_1
*I *869:CLK I *D gf180mcu_fd_sc_mcu7t5v0__dffrnq_1
*I *876:CLK I *D gf180mcu_fd_sc_mcu7t5v0__dffrnq_1
*I *857:CLK I *D gf180mcu_fd_sc_mcu7t5v0__dffrnq_1
*I *878:CLK I *D gf180mcu_fd_sc_mcu7t5v0__dffrnq_1
*I *877:CLK I *D gf180mcu_fd_sc_mcu7t5v0__dffrnq_1
*I *895:Z O *D gf180mcu_fd_sc_mcu7t5v0__clkbuf_16
*CAP
1 *879:CLK 0.000443964
2 *869:CLK 0.000640984
3 *876:CLK 0.00026857
4 *857:CLK 0
5 *878:CLK 0.000674215
6 *877:CLK 0.000182197
7 *895:Z 0.00121507
8 *133:31 0.000434963
9 *133:10 0.000820137
10 *869:CLK *172:22 0
11 *869:CLK *181:32 0.000347314
12 *876:CLK *153:29 0
13 *769:A3 *869:CLK 1.03102e-05
14 *780:A2 *869:CLK 0.000174506
15 *820:A2 *878:CLK 0
16 *820:B1 *133:10 0.000226581
17 *820:B2 *133:10 0.000393144
18 *840:A1 *133:31 2.10303e-05
19 *840:A2 *133:31 7.84068e-05
20 *840:B1 *133:31 1.79237e-05
21 *857:D *876:CLK 6.25284e-05
22 *857:D *133:31 0.000115251
23 *876:D *876:CLK 5.85332e-05
24 *876:D *133:31 0.000381349
25 *877:D *877:CLK 2.32821e-05
26 *878:D *878:CLK 7.55765e-06
27 *878:D *879:CLK 0
28 *879:D *879:CLK 7.01651e-05
29 *104:14 *133:10 3.42509e-05
30 *113:26 *869:CLK 0.00135889
*RES
1 *895:Z *133:10 17.55 
2 *133:10 *877:CLK 5.67 
3 *133:10 *878:CLK 6.03 
4 *895:Z *133:31 6.93 
5 *133:31 *857:CLK 4.5 
6 *133:31 *876:CLK 6.48 
7 *895:Z *869:CLK 24.66 
8 *878:CLK *879:CLK 12.24 
*END

*D_NET *134 0.0120072
*CONN
*I *870:CLK I *D gf180mcu_fd_sc_mcu7t5v0__dffrnq_1
*I *875:CLK I *D gf180mcu_fd_sc_mcu7t5v0__dffrnq_1
*I *872:CLK I *D gf180mcu_fd_sc_mcu7t5v0__dffrnq_1
*I *867:CLK I *D gf180mcu_fd_sc_mcu7t5v0__dffrnq_1
*I *866:CLK I *D gf180mcu_fd_sc_mcu7t5v0__dffrnq_1
*I *903:I I *D gf180mcu_fd_sc_mcu7t5v0__clkbuf_2
*I *896:Z O *D gf180mcu_fd_sc_mcu7t5v0__clkbuf_16
*CAP
1 *870:CLK 0.000103434
2 *875:CLK 0.000782525
3 *872:CLK 0.000120292
4 *867:CLK 0.000311492
5 *866:CLK 0.000381168
6 *903:I 0
7 *896:Z 0.000437457
8 *134:29 0.00101012
9 *134:25 0.000829168
10 *134:21 0.00137098
11 *134:12 0.000531065
12 *866:CLK *786:A3 0.000842798
13 *866:CLK *182:22 2.36813e-05
14 *866:CLK *182:30 0
15 *870:CLK *798:A1 0.000180811
16 *872:CLK *182:22 0.000578525
17 *875:CLK *767:A1 2.37216e-05
18 *875:CLK *773:A2 0
19 *875:CLK *872:RN 0.000389133
20 *875:CLK *145:17 0
21 *875:CLK *187:16 0.000382884
22 *875:CLK *197:23 0.000273674
23 *875:CLK *217:21 4.24489e-05
24 *134:12 *767:A1 0
25 *134:12 *786:A3 0.0002455
26 *134:12 *187:16 0.000236727
27 *134:12 *217:21 0
28 *134:21 *766:A1 0.000142795
29 *134:21 *187:16 2.30981e-05
30 *134:21 *217:8 0.000242947
31 *134:25 *790:A2 0.000139748
32 *134:25 *217:21 3.67526e-05
33 *134:29 *182:22 0.000354577
34 *773:A4 *134:12 0.000433797
35 *788:B *866:CLK 0
36 *791:A1 *866:CLK 5.45276e-05
37 *791:A2 *867:CLK 5.58585e-05
38 *866:D *866:CLK 8.52804e-05
39 *867:D *866:CLK 0
40 *867:D *867:CLK 0.000458327
41 *875:D *875:CLK 0
42 *894:I *134:21 3.22741e-06
43 *3:22 *134:21 2.85707e-05
44 *132:17 *134:12 0
45 *132:17 *134:21 4.85511e-06
46 *132:33 *875:CLK 0.000662462
47 *132:33 *134:21 1.91716e-06
48 *132:78 *870:CLK 0.000180811
*RES
1 *896:Z *134:12 17.28 
2 *134:12 *903:I 4.5 
3 *134:12 *134:21 6.57 
4 *134:21 *134:25 7.11 
5 *134:25 *134:29 2.88 
6 *134:29 *866:CLK 8.37 
7 *134:29 *867:CLK 16.65 
8 *134:25 *872:CLK 6.03 
9 *134:21 *875:CLK 17.37 
10 *896:Z *870:CLK 10.44 
*END

*D_NET *135 0.00650501
*CONN
*I *858:CLK I *D gf180mcu_fd_sc_mcu7t5v0__dffrnq_1
*I *855:CLK I *D gf180mcu_fd_sc_mcu7t5v0__dffrnq_1
*I *856:CLK I *D gf180mcu_fd_sc_mcu7t5v0__dffrnq_1
*I *853:CLK I *D gf180mcu_fd_sc_mcu7t5v0__dffrnq_1
*I *854:CLK I *D gf180mcu_fd_sc_mcu7t5v0__dffrnq_1
*I *904:I I *D gf180mcu_fd_sc_mcu7t5v0__clkbuf_2
*I *897:Z O *D gf180mcu_fd_sc_mcu7t5v0__clkbuf_16
*CAP
1 *858:CLK 0
2 *855:CLK 0
3 *856:CLK 0
4 *853:CLK 0.000113269
5 *854:CLK 0.000238506
6 *904:I 0.000110672
7 *897:Z 0.000218773
8 *135:24 0.000351775
9 *135:22 0.000262993
10 *135:20 0.000371767
11 *135:18 0.000216875
12 *853:CLK *838:A1 0.00048874
13 *853:CLK *842:A1 8.42806e-05
14 *854:CLK *842:A1 0.000189295
15 *854:CLK *172:14 5.47541e-05
16 *854:CLK *184:8 0
17 *135:18 *838:A1 7.20334e-05
18 *135:18 *868:CLK 0.000164693
19 *135:20 *838:A1 0.000398973
20 *135:20 *868:CLK 6.16286e-05
21 *135:22 *838:A1 0.000319162
22 *833:A1 *135:22 3.84416e-05
23 *833:A2 *135:22 0.000316927
24 *836:A2 *853:CLK 0.000337213
25 *836:A2 *854:CLK 0.000977871
26 *856:D *853:CLK 3.01487e-05
27 *856:D *135:22 1.22166e-05
28 *868:D *904:I 5.50498e-05
29 *70:20 *135:20 0.000789629
30 *70:20 *135:22 0.000229324
*RES
1 *897:Z *904:I 9.81 
2 *897:Z *135:18 5.67 
3 *135:18 *135:20 2.61 
4 *135:20 *135:22 2.61 
5 *135:22 *135:24 4.5 
6 *135:24 *854:CLK 12.33 
7 *135:24 *853:CLK 10.98 
8 *135:22 *856:CLK 4.5 
9 *135:20 *855:CLK 4.5 
10 *135:18 *858:CLK 4.5 
*END

*D_NET *136 0.00946719
*CONN
*I *861:CLK I *D gf180mcu_fd_sc_mcu7t5v0__dffrnq_1
*I *871:CLK I *D gf180mcu_fd_sc_mcu7t5v0__dffrnq_1
*I *905:I I *D gf180mcu_fd_sc_mcu7t5v0__clkbuf_2
*I *860:CLK I *D gf180mcu_fd_sc_mcu7t5v0__dffrnq_1
*I *859:CLK I *D gf180mcu_fd_sc_mcu7t5v0__dffrnq_1
*I *868:CLK I *D gf180mcu_fd_sc_mcu7t5v0__dffrnq_1
*I *898:Z O *D gf180mcu_fd_sc_mcu7t5v0__clkbuf_16
*CAP
1 *861:CLK 0.000255547
2 *871:CLK 0.000139717
3 *905:I 0
4 *860:CLK 0
5 *859:CLK 0
6 *868:CLK 0.000393627
7 *898:Z 0
8 *136:37 0.000252549
9 *136:33 0.00046182
10 *136:26 0.000172049
11 *136:8 0.000744086
12 *136:4 0.000429069
13 *861:CLK *870:RN 0.000720573
14 *861:CLK *913:I 0.000123905
15 *868:CLK *771:A1 0.000240538
16 *868:CLK *796:A1 4.83522e-05
17 *871:CLK *851:A2 0.000486049
18 *871:CLK *171:12 0.000486049
19 *136:8 *796:A1 3.58e-05
20 *136:8 *806:A1 0.000903105
21 *136:26 *806:A1 0.00047198
22 *136:26 *913:I 2.93938e-05
23 *136:33 *913:I 0.000208323
24 *805:A2 *861:CLK 0.00030411
25 *846:A2 *871:CLK 0.000601513
26 *846:A2 *136:37 0.000601531
27 *859:D *136:8 4.33529e-05
28 *860:D *871:CLK 0
29 *860:D *136:37 0
30 *868:D *868:CLK 0.000222914
31 *70:20 *868:CLK 0.000354728
32 *98:12 *861:CLK 0.000154581
33 *98:12 *136:8 0.000146698
34 *98:12 *136:26 0.000115511
35 *98:12 *136:33 9.34006e-05
36 *135:18 *868:CLK 0.000164693
37 *135:20 *868:CLK 6.16286e-05
*RES
1 *898:Z *136:4 4.5 
2 *136:4 *136:8 3.96 
3 *136:8 *868:CLK 8.91 
4 *136:8 *859:CLK 4.5 
5 *136:4 *136:26 1.53 
6 *136:26 *860:CLK 4.5 
7 *136:26 *136:33 1.35 
8 *136:33 *136:37 6.03 
9 *136:37 *905:I 9 
10 *136:37 *871:CLK 11.88 
11 *136:33 *861:CLK 8.37 
*END

*D_NET *137 0.00595853
*CONN
*I *889:CLK I *D gf180mcu_fd_sc_mcu7t5v0__dffrnq_1
*I *873:CLK I *D gf180mcu_fd_sc_mcu7t5v0__dffrnq_1
*I *906:I I *D gf180mcu_fd_sc_mcu7t5v0__clkbuf_2
*I *888:CLK I *D gf180mcu_fd_sc_mcu7t5v0__dffrnq_1
*I *886:CLK I *D gf180mcu_fd_sc_mcu7t5v0__dffrnq_1
*I *887:CLK I *D gf180mcu_fd_sc_mcu7t5v0__dffrnq_1
*I *899:Z O *D gf180mcu_fd_sc_mcu7t5v0__clkbuf_16
*CAP
1 *889:CLK 0
2 *873:CLK 0.000560348
3 *906:I 0.000181756
4 *888:CLK 0
5 *886:CLK 0.000395064
6 *887:CLK 0.000175367
7 *899:Z 0.000505539
8 *137:53 0.000835219
9 *137:18 0.000796171
10 *137:14 0.000495349
11 *137:10 0.000682033
12 *873:CLK *197:10 0
13 *906:I *177:47 3.01487e-05
14 *906:I *177:66 6.35387e-05
15 *137:10 *759:A2 2.241e-05
16 *137:10 *177:66 0.000165322
17 *137:14 *758:A1 0
18 *137:14 *758:A2 0
19 *137:53 *759:A1 0.000154028
20 *886:D *886:CLK 2.65444e-06
21 *887:D *886:CLK 6.31783e-05
22 *887:D *887:CLK 9.34006e-05
23 *887:D *137:18 6.95539e-05
24 *888:D *137:10 0.000519014
25 *889:D *873:CLK 7.55765e-06
26 *889:D *137:53 0.000140876
*RES
1 *899:Z *137:10 7.47 
2 *137:10 *137:14 6.03 
3 *137:14 *137:18 6.39 
4 *137:18 *887:CLK 5.85 
5 *137:18 *886:CLK 7.11 
6 *137:14 *888:CLK 9 
7 *137:10 *906:I 5.85 
8 *899:Z *137:53 6.93 
9 *137:53 *873:CLK 17.64 
10 *137:53 *889:CLK 4.5 
*END

*D_NET *138 0.00671915
*CONN
*I *880:CLK I *D gf180mcu_fd_sc_mcu7t5v0__dffrnq_1
*I *891:CLK I *D gf180mcu_fd_sc_mcu7t5v0__dffrnq_1
*I *890:CLK I *D gf180mcu_fd_sc_mcu7t5v0__dffrnq_1
*I *892:CLK I *D gf180mcu_fd_sc_mcu7t5v0__dffrnq_1
*I *893:CLK I *D gf180mcu_fd_sc_mcu7t5v0__dffrnq_1
*I *907:I I *D gf180mcu_fd_sc_mcu7t5v0__clkbuf_2
*I *900:Z O *D gf180mcu_fd_sc_mcu7t5v0__clkbuf_16
*CAP
1 *880:CLK 0.000401893
2 *891:CLK 0
3 *890:CLK 0.000190072
4 *892:CLK 3.44897e-05
5 *893:CLK 0.000166768
6 *907:I 0.000597857
7 *900:Z 0.000394848
8 *138:43 0.00075828
9 *138:41 0.000970101
10 *138:32 0.000404267
11 *880:CLK *916:I 0
12 *880:CLK *176:14 1.18076e-06
13 *880:CLK *176:38 5.26892e-05
14 *880:CLK *182:22 0.000496785
15 *880:CLK *196:10 0.000151427
16 *890:CLK *754:A1 2.65444e-06
17 *890:CLK *754:A2 9.48553e-05
18 *893:CLK *176:38 0.000229163
19 *893:CLK *176:42 0.00015997
20 *907:I *758:A2 2.37695e-05
21 *907:I *938:I 0
22 *907:I *182:22 0
23 *138:32 *891:RN 0
24 *138:32 *960:I 0
25 *138:43 *754:A2 0.000332963
26 *138:43 *917:I 8.17043e-05
27 *138:43 *176:14 8.90578e-05
28 *880:D *880:CLK 0
29 *880:D *893:CLK 9.63115e-05
30 *890:D *890:CLK 0.000204492
31 *891:D *890:CLK 0.000382884
32 *891:D *138:43 0.000247379
33 *892:D *138:32 1.86887e-06
34 *3:22 *893:CLK 0.000151417
*RES
1 *900:Z *907:I 10.44 
2 *900:Z *893:CLK 11.43 
3 *907:I *138:32 6.75 
4 *138:32 *892:CLK 4.77 
5 *138:32 *138:41 4.5 
6 *138:41 *138:43 6.21 
7 *138:43 *890:CLK 11.34 
8 *138:43 *891:CLK 9 
9 *138:41 *880:CLK 12.42 
*END

*D_NET *139 0.00615232
*CONN
*I *863:CLK I *D gf180mcu_fd_sc_mcu7t5v0__dffrnq_1
*I *862:CLK I *D gf180mcu_fd_sc_mcu7t5v0__dffrnq_1
*I *883:CLK I *D gf180mcu_fd_sc_mcu7t5v0__dffrnq_1
*I *865:CLK I *D gf180mcu_fd_sc_mcu7t5v0__dffrnq_1
*I *864:CLK I *D gf180mcu_fd_sc_mcu7t5v0__dffrnq_1
*I *908:I I *D gf180mcu_fd_sc_mcu7t5v0__clkbuf_2
*I *901:Z O *D gf180mcu_fd_sc_mcu7t5v0__clkbuf_16
*CAP
1 *863:CLK 0
2 *862:CLK 0.000365332
3 *883:CLK 0.000626333
4 *865:CLK 0
5 *864:CLK 0
6 *908:I 8.0476e-05
7 *901:Z 0.000147961
8 *139:41 0.000440842
9 *139:20 0.000818394
10 *139:6 0.000344987
11 *862:CLK *782:A1 5.97457e-06
12 *862:CLK *174:86 0.000108516
13 *862:CLK *174:90 9.84776e-05
14 *883:CLK *885:RN 2.6414e-05
15 *883:CLK *140:50 6.55842e-05
16 *139:6 *782:A1 3.55118e-05
17 *139:6 *785:A1 0.000400957
18 *139:20 *785:A1 0.000496785
19 *139:41 *782:A1 0.00026197
20 *139:41 *174:90 0.000112253
21 *785:A2 *139:20 0.000286386
22 *864:D *139:6 7.82853e-05
23 *865:D *883:CLK 1.61174e-05
24 *865:D *139:20 2.93938e-05
25 *882:D *883:CLK 0.000939893
26 *882:D *139:20 0.000354738
27 *883:D *883:CLK 1.07374e-05
*RES
1 *901:Z *139:6 5.67 
2 *139:6 *908:I 5.13 
3 *139:6 *864:CLK 4.5 
4 *139:6 *139:20 2.61 
5 *139:20 *865:CLK 4.5 
6 *139:20 *883:CLK 9.9 
7 *901:Z *139:41 5.67 
8 *139:41 *862:CLK 7.38 
9 *139:41 *863:CLK 4.5 
*END

*D_NET *140 0.0076841
*CONN
*I *881:CLK I *D gf180mcu_fd_sc_mcu7t5v0__dffrnq_1
*I *884:CLK I *D gf180mcu_fd_sc_mcu7t5v0__dffrnq_1
*I *882:CLK I *D gf180mcu_fd_sc_mcu7t5v0__dffrnq_1
*I *909:I I *D gf180mcu_fd_sc_mcu7t5v0__clkbuf_2
*I *885:CLK I *D gf180mcu_fd_sc_mcu7t5v0__dffrnq_1
*I *874:CLK I *D gf180mcu_fd_sc_mcu7t5v0__dffrnq_1
*I *902:Z O *D gf180mcu_fd_sc_mcu7t5v0__clkbuf_16
*CAP
1 *881:CLK 0
2 *884:CLK 5.97558e-05
3 *882:CLK 0
4 *909:I 0
5 *885:CLK 0
6 *874:CLK 0.000237393
7 *902:Z 3.2598e-05
8 *140:50 0.000240481
9 *140:39 0.000218855
10 *140:16 0.000902202
11 *140:10 0.000776399
12 *140:6 0.000182317
13 *874:CLK *815:A1 0
14 *884:CLK *935:I 0
15 *884:CLK *959:I 0
16 *884:CLK *195:10 5.13763e-05
17 *140:6 *763:A2 0.000233578
18 *140:6 *885:RN 0.000294421
19 *140:10 *763:A1 0.00025584
20 *140:10 *959:I 0.000992096
21 *140:10 *203:42 0.00032797
22 *140:16 *756:A2 0
23 *140:16 *763:A1 0.000216973
24 *140:16 *764:A2 0
25 *140:16 *203:42 0.00151818
26 *140:39 *885:RN 0.000128649
27 *140:50 *885:RN 0.00047198
28 *140:50 *959:I 0
29 *140:50 *195:10 0.000159352
30 *882:D *140:6 6.50416e-06
31 *882:D *140:39 2.14747e-05
32 *882:D *140:50 7.55765e-06
33 *883:CLK *140:50 6.55842e-05
34 *885:D *874:CLK 7.55765e-06
35 *885:D *140:16 7.01651e-05
36 *893:D *140:16 0
37 *132:53 *874:CLK 3.00327e-05
38 *132:53 *140:16 3.12455e-05
39 *132:114 *140:16 3.93738e-05
40 *132:123 *140:16 0.000104194
*RES
1 *902:Z *140:6 5.31 
2 *140:6 *140:10 7.83 
3 *140:10 *140:16 11.88 
4 *140:16 *874:CLK 6.12 
5 *140:16 *885:CLK 4.5 
6 *140:10 *909:I 9 
7 *140:6 *140:39 0.45 
8 *140:39 *882:CLK 4.5 
9 *140:39 *140:50 6.84 
10 *140:50 *884:CLK 9.63 
11 *140:50 *881:CLK 9 
*END

*D_NET *141 0.00776526
*CONN
*I *794:A1 I *D gf180mcu_fd_sc_mcu7t5v0__xnor2_1
*I *795:A1 I *D gf180mcu_fd_sc_mcu7t5v0__xor2_1
*I *797:A1 I *D gf180mcu_fd_sc_mcu7t5v0__nand2_1
*I *793:A3 I *D gf180mcu_fd_sc_mcu7t5v0__nand4_1
*I *868:Q O *D gf180mcu_fd_sc_mcu7t5v0__dffrnq_1
*CAP
1 *794:A1 0
2 *795:A1 0.000338224
3 *797:A1 0.000305177
4 *793:A3 0
5 *868:Q 0.000499951
6 *141:36 0.000625708
7 *141:19 0.00061105
8 *141:10 0.00051834
9 *797:A1 *787:A2 6.58085e-05
10 *797:A1 *792:A2 4.45401e-05
11 *797:A1 *793:A2 0.000130556
12 *797:A1 *212:43 6.05118e-05
13 *141:10 *793:A2 3.01487e-05
14 *141:10 *868:RN 4.59585e-05
15 *141:10 *927:I 9.91104e-05
16 *141:10 *175:8 0.000164036
17 *141:10 *180:10 0.000425609
18 *141:19 *793:A2 2.08301e-05
19 *141:36 *793:A2 4.22217e-05
20 *793:A4 *797:A1 0.00016559
21 *794:A2 *797:A1 0.000299714
22 *794:A2 *141:36 0.000622546
23 *795:A2 *795:A1 0.000882939
24 *795:A2 *141:36 6.2979e-05
25 *798:A4 *141:36 0
26 *799:A2 *141:36 2.37543e-05
27 *800:A2 *141:36 1.09026e-05
28 *844:A2 *141:36 0
29 *895:I *141:10 2.27169e-05
30 *65:14 *797:A1 8.71716e-05
31 *65:40 *797:A1 0.000109323
32 *112:18 *141:10 0.0010193
33 *113:26 *141:10 0.000248831
34 *126:28 *141:10 5.30751e-05
35 *126:28 *141:19 9.04462e-05
36 *132:93 *795:A1 3.81868e-05
*RES
1 *868:Q *141:10 11.07 
2 *141:10 *793:A3 4.5 
3 *141:10 *141:19 4.77 
4 *141:19 *797:A1 12.42 
5 *141:19 *141:36 7.38 
6 *141:36 *795:A1 8.01 
7 *141:36 *794:A1 4.5 
*END

*D_NET *142 0.00695549
*CONN
*I *799:A1 I *D gf180mcu_fd_sc_mcu7t5v0__xnor2_1
*I *800:A1 I *D gf180mcu_fd_sc_mcu7t5v0__xor2_1
*I *797:A2 I *D gf180mcu_fd_sc_mcu7t5v0__nand2_1
*I *869:Q O *D gf180mcu_fd_sc_mcu7t5v0__dffrnq_1
*CAP
1 *799:A1 0
2 *800:A1 0
3 *797:A2 0.000152903
4 *869:Q 0.000502898
5 *142:16 0.000331773
6 *142:10 0.000681768
7 *797:A2 *787:A2 7.15592e-05
8 *797:A2 *793:A2 9.25157e-05
9 *142:10 *804:A1 3.01487e-05
10 *142:10 *806:A1 0.000676974
11 *142:10 *829:C 0.000429585
12 *142:10 *869:RN 4.76605e-05
13 *142:10 *183:6 1.17725e-05
14 *142:16 *829:C 0.0010886
15 *142:16 *212:12 0.000193622
16 *798:A4 *797:A2 5.00297e-05
17 *798:A4 *142:10 0.000346684
18 *798:A4 *142:16 1.39909e-05
19 *806:A2 *142:10 0.0004024
20 *829:B *142:10 0.000122395
21 *829:B *142:16 0.000135281
22 *66:32 *797:A2 0.000587403
23 *113:26 *142:16 0.000496785
24 *126:28 *142:16 0.00048874
*RES
1 *869:Q *142:10 15.3 
2 *142:10 *142:16 9 
3 *142:16 *797:A2 15.39 
4 *142:16 *800:A1 4.5 
5 *142:10 *799:A1 9 
*END

*D_NET *143 0.00677292
*CONN
*I *803:A1 I *D gf180mcu_fd_sc_mcu7t5v0__xor2_1
*I *804:A1 I *D gf180mcu_fd_sc_mcu7t5v0__xnor2_1
*I *802:A1 I *D gf180mcu_fd_sc_mcu7t5v0__nand2_1
*I *870:Q O *D gf180mcu_fd_sc_mcu7t5v0__dffrnq_1
*CAP
1 *803:A1 0
2 *804:A1 0.000328001
3 *802:A1 3.92644e-05
4 *870:Q 0.000494412
5 *143:25 0.000583319
6 *143:10 0.000788994
7 *804:A1 *144:8 0
8 *143:10 *847:A1 4.89196e-07
9 *798:A3 *804:A1 0.000299993
10 *798:A4 *804:A1 0.000237716
11 *802:A2 *802:A1 0.000100113
12 *802:A2 *804:A1 7.55765e-06
13 *802:A2 *143:25 3.02306e-05
14 *804:A2 *804:A1 0.000586561
15 *806:A2 *802:A1 0.000308347
16 *806:A2 *804:A1 0.000362665
17 *806:A2 *143:10 0.000233327
18 *806:A2 *143:25 0.000187619
19 *807:A2 *802:A1 5.61471e-05
20 *807:A2 *143:10 0.000230031
21 *850:B *143:10 0
22 *861:D *143:10 8.52804e-05
23 *871:D *802:A1 0.000447756
24 *871:D *143:10 0.00117568
25 *92:6 *804:A1 0.00010563
26 *98:12 *143:10 5.36351e-05
27 *142:10 *804:A1 3.01487e-05
*RES
1 *870:Q *143:10 14.76 
2 *143:10 *802:A1 10.44 
3 *143:10 *143:25 6.57 
4 *143:25 *804:A1 9.63 
5 *143:25 *803:A1 4.5 
*END

*D_NET *144 0.00723788
*CONN
*I *806:A1 I *D gf180mcu_fd_sc_mcu7t5v0__xor2_1
*I *829:C I *D gf180mcu_fd_sc_mcu7t5v0__oai211_1
*I *871:Q O *D gf180mcu_fd_sc_mcu7t5v0__dffrnq_1
*CAP
1 *806:A1 0.000329342
2 *829:C 0.000113526
3 *871:Q 0.000378993
4 *144:8 0.000821861
5 *806:A1 *913:I 0.000976801
6 *144:8 *798:A1 0
7 *798:A4 *806:A1 0.000154296
8 *798:A4 *829:C 0.000234525
9 *804:A1 *144:8 0
10 *804:A2 *144:8 0
11 *806:A2 *806:A1 9.84776e-05
12 *829:A1 *829:C 0.000435201
13 *829:B *144:8 0.000124614
14 *846:A2 *806:A1 0
15 *132:78 *144:8 0
16 *136:8 *806:A1 0.000903105
17 *136:26 *806:A1 0.00047198
18 *142:10 *806:A1 0.000676974
19 *142:10 *829:C 0.000429585
20 *142:16 *829:C 0.0010886
*RES
1 *871:Q *144:8 11.43 
2 *144:8 *829:C 12.87 
3 *144:8 *806:A1 15.3 
*END

*D_NET *145 0.00480889
*CONN
*I *809:A1 I *D gf180mcu_fd_sc_mcu7t5v0__xnor2_1
*I *808:A1 I *D gf180mcu_fd_sc_mcu7t5v0__xor2_1
*I *774:A2 I *D gf180mcu_fd_sc_mcu7t5v0__nand2_1
*I *773:A2 I *D gf180mcu_fd_sc_mcu7t5v0__nand4_1
*I *872:Q O *D gf180mcu_fd_sc_mcu7t5v0__dffrnq_1
*CAP
1 *809:A1 0.000149652
2 *808:A1 0
3 *774:A2 0.000255728
4 *773:A2 0.000254363
5 *872:Q 0
6 *145:32 0.00030559
7 *145:17 0.000436669
8 *145:4 0.000279366
9 *773:A2 *767:A1 3.37041e-05
10 *773:A2 *773:A1 4.44162e-05
11 *773:A2 *187:16 0.000179912
12 *774:A2 *872:RN 0.000215887
13 *774:A2 *175:29 0
14 *774:A2 *211:26 0
15 *809:A1 *811:A1 9.04462e-05
16 *809:A1 *175:63 0.000347955
17 *145:17 *872:RN 0
18 *775:A4 *774:A2 5.23787e-05
19 *775:A4 *809:A1 0.00035741
20 *775:A4 *145:32 4.50389e-05
21 *808:A2 *809:A1 4.6613e-06
22 *809:A2 *809:A1 0.000258557
23 *812:A2 *774:A2 0
24 *812:A2 *809:A1 1.84368e-05
25 *875:CLK *773:A2 0
26 *875:CLK *145:17 0
27 *66:12 *774:A2 1.13131e-05
28 *66:12 *145:32 4.43411e-05
29 *72:8 *773:A2 0.00117006
30 *72:8 *774:A2 2.49724e-05
31 *72:8 *809:A1 5.85233e-05
32 *72:8 *145:17 0.000169515
*RES
1 *872:Q *145:4 4.5 
2 *145:4 *773:A2 8.1 
3 *145:4 *145:17 4.95 
4 *145:17 *774:A2 11.34 
5 *145:17 *145:32 5.49 
6 *145:32 *808:A1 4.5 
7 *145:32 *809:A1 7.11 
*END

*D_NET *146 0.00204819
*CONN
*I *812:A1 I *D gf180mcu_fd_sc_mcu7t5v0__xor2_1
*I *811:A1 I *D gf180mcu_fd_sc_mcu7t5v0__xnor2_1
*I *774:A1 I *D gf180mcu_fd_sc_mcu7t5v0__nand2_1
*I *873:Q O *D gf180mcu_fd_sc_mcu7t5v0__dffrnq_1
*CAP
1 *812:A1 0.00018385
2 *811:A1 0.00013201
3 *774:A1 4.42557e-05
4 *873:Q 0
5 *146:8 0.000284411
6 *146:4 0.000291996
7 *774:A1 *175:29 0.000255088
8 *811:A1 *175:29 6.42055e-05
9 *811:A1 *175:55 0.000228435
10 *811:A1 *175:63 9.04462e-05
11 *811:A1 *175:85 9.39061e-05
12 *812:A1 *175:63 1.19491e-05
13 *812:A1 *197:23 3.5093e-05
14 *146:8 *872:RN 1.79733e-05
15 *146:8 *197:23 2.65444e-06
16 *809:A1 *811:A1 9.04462e-05
17 *810:A2 *774:A1 0
18 *810:A2 *811:A1 0
19 *812:A2 *812:A1 0.000152165
20 *812:A2 *146:8 6.93035e-05
*RES
1 *873:Q *146:4 4.5 
2 *146:4 *146:8 5.31 
3 *146:8 *774:A1 9.63 
4 *146:8 *811:A1 10.26 
5 *146:4 *812:A1 6.21 
*END

*D_NET *147 0.00508103
*CONN
*I *778:A1 I *D gf180mcu_fd_sc_mcu7t5v0__xnor2_1
*I *777:A1 I *D gf180mcu_fd_sc_mcu7t5v0__xor2_1
*I *776:A1 I *D gf180mcu_fd_sc_mcu7t5v0__nand2_1
*I *874:Q O *D gf180mcu_fd_sc_mcu7t5v0__dffrnq_1
*CAP
1 *778:A1 0
2 *777:A1 0.00014613
3 *776:A1 0.000101454
4 *874:Q 0.00026422
5 *147:25 0.00014613
6 *147:12 0.000365674
7 *776:A1 *211:26 2.36813e-05
8 *777:A1 *830:B 7.07276e-05
9 *147:12 *783:A1 0.000468608
10 *147:12 *830:B 0.00024145
11 *147:12 *152:14 0.00130406
12 *776:A2 *776:A1 0.000501538
13 *777:A2 *777:A1 0.000106536
14 *783:A2 *776:A1 1.0415e-05
15 *852:A2 *776:A1 0.000822739
16 *852:A2 *147:12 0.000448058
17 *74:18 *777:A1 5.96096e-05
*RES
1 *874:Q *147:12 13.95 
2 *147:12 *776:A1 11.34 
3 *147:12 *147:25 4.5 
4 *147:25 *777:A1 5.85 
5 *147:25 *778:A1 4.5 
*END

*D_NET *148 0.0046106
*CONN
*I *783:A1 I *D gf180mcu_fd_sc_mcu7t5v0__xor2_1
*I *830:B I *D gf180mcu_fd_sc_mcu7t5v0__oai211_1
*I *875:Q O *D gf180mcu_fd_sc_mcu7t5v0__dffrnq_1
*CAP
1 *783:A1 0.000674875
2 *830:B 0.000516756
3 *875:Q 0
4 *148:4 0.00119163
5 *783:A1 *875:RN 6.57682e-05
6 *783:A1 *885:RN 0
7 *783:A1 *152:14 9.2838e-05
8 *783:A1 *194:26 9.34115e-05
9 *830:B *807:A1 0
10 *830:B *875:RN 1.47139e-05
11 *830:B *152:14 0.000294882
12 *830:B *152:22 0.000135666
13 *830:B *175:85 3.64412e-05
14 *777:A1 *830:B 7.07276e-05
15 *777:A2 *830:B 0.000121576
16 *783:A2 *783:A1 0
17 *850:A2 *830:B 0.000591253
18 *147:12 *783:A1 0.000468608
19 *147:12 *830:B 0.00024145
*RES
1 *875:Q *148:4 4.5 
2 *148:4 *830:B 19.35 
3 *148:4 *783:A1 10.44 
*END

*D_NET *149 0.00229992
*CONN
*I *762:A2 I *D gf180mcu_fd_sc_mcu7t5v0__and2_1
*I *882:Q O *D gf180mcu_fd_sc_mcu7t5v0__dffrnq_1
*CAP
1 *762:A2 0.000762945
2 *882:Q 0.000762945
3 *762:A2 *762:A1 0.000182206
4 *762:A2 *763:A2 0.000110619
5 *762:A2 *865:RN 0.000302466
6 *762:A2 *882:RN 0
7 *762:A2 *883:RN 9.47819e-05
8 *762:A2 *934:I 0
9 *762:A2 *950:I 2.44752e-05
10 *762:A2 *953:I 5.94809e-05
11 *762:A2 *195:10 0
12 *762:A2 *195:19 0
*RES
1 *882:Q *762:A2 24.3 
*END

*D_NET *150 0.00474601
*CONN
*I *763:A2 I *D gf180mcu_fd_sc_mcu7t5v0__and2_1
*I *883:Q O *D gf180mcu_fd_sc_mcu7t5v0__dffrnq_1
*CAP
1 *763:A2 0.000837783
2 *883:Q 0.000837783
3 *763:A2 *761:A2 0.00105308
4 *763:A2 *763:A1 0.000181311
5 *763:A2 *784:A1 0
6 *763:A2 *865:RN 0.000263804
7 *763:A2 *885:RN 0.000164693
8 *763:A2 *959:I 0.00100201
9 *762:A2 *763:A2 0.000110619
10 *882:D *763:A2 6.13537e-05
11 *140:6 *763:A2 0.000233578
*RES
1 *883:Q *763:A2 28.71 
*END

*D_NET *151 0.0018643
*CONN
*I *764:A2 I *D gf180mcu_fd_sc_mcu7t5v0__and2_1
*I *884:Q O *D gf180mcu_fd_sc_mcu7t5v0__dffrnq_1
*CAP
1 *764:A2 0.000442751
2 *884:Q 0.000442751
3 *764:A2 *764:A1 0.000169524
4 *764:A2 *880:RN 0
5 *764:A2 *884:RN 8.66004e-05
6 *764:A2 *201:21 0.000646468
7 *764:A2 *203:42 7.43406e-05
8 *132:123 *764:A2 1.86887e-06
9 *140:16 *764:A2 0
*RES
1 *884:Q *764:A2 22.5 
*END

*D_NET *152 0.0132012
*CONN
*I *746:I I *D gf180mcu_fd_sc_mcu7t5v0__clkinv_1
*I *773:A1 I *D gf180mcu_fd_sc_mcu7t5v0__nand4_1
*I *786:A3 I *D gf180mcu_fd_sc_mcu7t5v0__nand3_1
*I *798:A1 I *D gf180mcu_fd_sc_mcu7t5v0__nor4_4
*I *885:Q O *D gf180mcu_fd_sc_mcu7t5v0__dffrnq_1
*CAP
1 *746:I 0
2 *773:A1 6.78467e-05
3 *786:A3 0.000843595
4 *798:A1 0.000328766
5 *885:Q 0.000913973
6 *152:37 0.0014952
7 *152:22 0.00142832
8 *152:14 0.00142977
9 *773:A1 *187:16 3.12451e-05
10 *786:A3 *182:22 0.00076373
11 *786:A3 *216:20 1.51153e-05
12 *152:14 *782:A1 0
13 *152:22 *775:A2 9.3226e-06
14 *152:22 *807:A1 0
15 *152:22 *175:85 9.2838e-05
16 *152:37 *189:10 0
17 *773:A2 *773:A1 4.44162e-05
18 *773:A3 *786:A3 0.00023711
19 *773:A3 *152:37 0.000770076
20 *777:A2 *152:14 2.09122e-05
21 *777:A2 *152:22 0.000815992
22 *783:A1 *152:14 9.2838e-05
23 *791:A2 *786:A3 2.17099e-05
24 *798:A3 *152:37 0.000245851
25 *805:A2 *152:22 0.000107798
26 *807:A2 *152:22 0
27 *830:B *152:14 0.000294882
28 *830:B *152:22 0.000135666
29 *864:D *152:14 0
30 *866:CLK *786:A3 0.000842798
31 *870:D *798:A1 1.56779e-05
32 *870:D *152:22 0.00017361
33 *870:CLK *798:A1 0.000180811
34 *871:D *152:22 0
35 *66:14 *773:A1 1.4382e-06
36 *66:32 *773:A1 1.86887e-06
37 *113:26 *152:22 5.97899e-05
38 *126:10 *152:14 1.79237e-05
39 *132:69 *152:22 4.53461e-05
40 *132:78 *798:A1 9.16398e-05
41 *132:78 *152:22 1.37366e-05
42 *134:12 *786:A3 0.0002455
43 *144:8 *798:A1 0
44 *147:12 *152:14 0.00130406
*RES
1 *885:Q *152:14 13.05 
2 *152:14 *152:22 14.58 
3 *152:22 *798:A1 7.11 
4 *152:22 *152:37 8.91 
5 *152:37 *786:A3 16.92 
6 *152:37 *773:A1 9.54 
7 *152:14 *746:I 4.5 
*END

*D_NET *153 0.00730021
*CONN
*I *819:A1 I *D gf180mcu_fd_sc_mcu7t5v0__xor2_1
*I *821:A1 I *D gf180mcu_fd_sc_mcu7t5v0__nand3_1
*I *825:A2 I *D gf180mcu_fd_sc_mcu7t5v0__nand4_1
*I *818:A1 I *D gf180mcu_fd_sc_mcu7t5v0__oai21_1
*I *769:A1 I *D gf180mcu_fd_sc_mcu7t5v0__or3_1
*I *816:A2 I *D gf180mcu_fd_sc_mcu7t5v0__nand3_1
*I *876:Q O *D gf180mcu_fd_sc_mcu7t5v0__dffrnq_1
*CAP
1 *819:A1 5.48645e-05
2 *821:A1 0.000109058
3 *825:A2 0.00023431
4 *818:A1 0
5 *769:A1 0
6 *816:A2 0
7 *876:Q 0.000276936
8 *153:42 0.000379898
9 *153:40 0.00066282
10 *153:29 0.00124171
11 *153:16 0.00104099
12 *153:12 0.000539253
13 *819:A1 *876:RN 5.2575e-05
14 *821:A1 *821:A2 3.87145e-05
15 *821:A1 *172:22 6.1427e-06
16 *825:A2 *749:I 0.000151584
17 *825:A2 *768:A3 0.000290504
18 *825:A2 *825:A3 1.73538e-05
19 *825:A2 *155:12 0.000151145
20 *153:12 *748:I 0.000113637
21 *153:12 *876:RN 8.38699e-05
22 *153:16 *748:I 0.000331914
23 *153:29 *748:I 4.43027e-05
24 *153:29 *172:22 0.000133982
25 *153:40 *821:A2 4.34121e-06
26 *153:40 *154:27 1.03727e-05
27 *153:40 *172:22 0.000277049
28 *153:42 *154:27 2.76258e-05
29 *153:42 *155:12 0.000518361
30 *153:42 *181:32 5.30918e-06
31 *769:A2 *153:29 2.60586e-05
32 *769:A3 *153:40 4.44491e-05
33 *769:A3 *153:42 4.21513e-05
34 *816:A3 *153:29 1.11529e-05
35 *824:A1 *153:40 6.58085e-05
36 *824:A1 *153:42 0.000171026
37 *827:A2 *825:A2 6.14822e-05
38 *827:A2 *153:42 2.6575e-05
39 *840:A1 *153:29 0
40 *840:B1 *153:29 0
41 *840:B1 *153:40 0
42 *857:D *153:29 0
43 *876:CLK *153:29 0
44 *66:68 *153:29 2.18243e-05
45 *66:81 *153:29 3.10592e-05
*RES
1 *876:Q *153:12 15.84 
2 *153:12 *153:16 6.57 
3 *153:16 *816:A2 9 
4 *153:16 *153:29 9.9 
5 *153:29 *769:A1 4.5 
6 *153:29 *153:40 8.1 
7 *153:40 *153:42 2.25 
8 *153:42 *818:A1 9 
9 *153:42 *825:A2 11.61 
10 *153:40 *821:A1 9.63 
11 *153:12 *819:A1 4.95 
*END

*D_NET *154 0.00681234
*CONN
*I *825:A3 I *D gf180mcu_fd_sc_mcu7t5v0__nand4_1
*I *821:A2 I *D gf180mcu_fd_sc_mcu7t5v0__nand3_1
*I *768:A1 I *D gf180mcu_fd_sc_mcu7t5v0__nand3_1
*I *748:I I *D gf180mcu_fd_sc_mcu7t5v0__clkinv_1
*I *877:Q O *D gf180mcu_fd_sc_mcu7t5v0__dffrnq_1
*CAP
1 *825:A3 0.000139125
2 *821:A2 0.000110893
3 *768:A1 0
4 *748:I 0.000407269
5 *877:Q 0
6 *154:27 0.000292209
7 *154:19 0.000562569
8 *154:4 0.000649396
9 *748:I *816:A1 2.36914e-05
10 *825:A3 *749:I 0.000168526
11 *825:A3 *768:A3 8.12856e-06
12 *825:A3 *825:A1 5.97457e-06
13 *825:A3 *181:8 0.000119985
14 *154:19 *825:A1 2.19668e-05
15 *154:19 *877:RN 0
16 *154:27 *768:A3 0.000560418
17 *154:27 *825:A1 5.92385e-05
18 *154:27 *155:12 9.22066e-05
19 *154:27 *181:32 0.00031278
20 *816:A3 *748:I 0.000293993
21 *818:B *748:I 0.000287594
22 *818:B *825:A3 9.04462e-05
23 *818:B *154:19 0.00103455
24 *819:A2 *748:I 0.000565405
25 *821:A1 *821:A2 3.87145e-05
26 *825:A2 *825:A3 1.73538e-05
27 *840:B1 *821:A2 0.000248193
28 *840:B1 *154:27 0.000169524
29 *153:12 *748:I 0.000113637
30 *153:16 *748:I 0.000331914
31 *153:29 *748:I 4.43027e-05
32 *153:40 *821:A2 4.34121e-06
33 *153:40 *154:27 1.03727e-05
34 *153:42 *154:27 2.76258e-05
*RES
1 *877:Q *154:4 4.5 
2 *154:4 *748:I 18.36 
3 *154:4 *154:19 2.79 
4 *154:19 *154:27 11.88 
5 *154:27 *768:A1 4.5 
6 *154:27 *821:A2 5.58 
7 *154:19 *825:A3 5.94 
*END

*D_NET *155 0.0052271
*CONN
*I *749:I I *D gf180mcu_fd_sc_mcu7t5v0__clkinv_1
*I *821:A3 I *D gf180mcu_fd_sc_mcu7t5v0__nand3_1
*I *768:A2 I *D gf180mcu_fd_sc_mcu7t5v0__nand3_1
*I *878:Q O *D gf180mcu_fd_sc_mcu7t5v0__dffrnq_1
*CAP
1 *749:I 0.000605501
2 *821:A3 2.75268e-05
3 *768:A2 0
4 *878:Q 0
5 *155:12 0.000109593
6 *155:4 0.000687567
7 *749:I *768:A3 3.22102e-05
8 *749:I *825:A1 0
9 *749:I *827:A1 0.000592487
10 *749:I *156:27 0.000273732
11 *155:12 *768:A3 0.000641009
12 *820:A2 *749:I 6.68757e-05
13 *820:B1 *749:I 0
14 *825:A2 *749:I 0.000151584
15 *825:A2 *155:12 0.000151145
16 *825:A3 *749:I 0.000168526
17 *827:A2 *749:I 4.29461e-05
18 *840:A2 *821:A3 0.000324589
19 *840:A2 *155:12 9.04462e-05
20 *840:B1 *821:A3 0.000354738
21 *840:B1 *155:12 9.04462e-05
22 *878:D *749:I 0.000171136
23 *879:D *749:I 3.44697e-05
24 *104:14 *749:I 0
25 *153:42 *155:12 0.000518361
26 *154:27 *155:12 9.22066e-05
*RES
1 *878:Q *155:4 4.5 
2 *155:4 *155:12 11.52 
3 *155:12 *768:A2 4.5 
4 *155:12 *821:A3 5.49 
5 *155:4 *749:I 19.53 
*END

*D_NET *156 0.00537596
*CONN
*I *828:A1 I *D gf180mcu_fd_sc_mcu7t5v0__oai31_1
*I *827:A1 I *D gf180mcu_fd_sc_mcu7t5v0__nand2_1
*I *768:A3 I *D gf180mcu_fd_sc_mcu7t5v0__nand3_1
*I *879:Q O *D gf180mcu_fd_sc_mcu7t5v0__dffrnq_1
*CAP
1 *828:A1 0
2 *827:A1 4.56422e-05
3 *768:A3 0.000137247
4 *879:Q 0.000226592
5 *156:27 0.000122259
6 *156:10 0.000440456
7 *768:A3 *825:A1 0.000498061
8 *768:A3 *181:8 2.40587e-06
9 *156:10 *878:RN 0.000192609
10 *156:10 *181:8 1.4382e-06
11 *749:I *768:A3 3.22102e-05
12 *749:I *827:A1 0.000592487
13 *749:I *156:27 0.000273732
14 *825:A2 *768:A3 0.000290504
15 *825:A3 *768:A3 8.12856e-06
16 *825:A4 *156:10 3.73774e-06
17 *826:B1 *156:10 0.000142705
18 *827:A2 *827:A1 0.000119878
19 *827:A2 *156:27 0.00071647
20 *828:B *827:A1 0.00032797
21 *154:27 *768:A3 0.000560418
22 *155:12 *768:A3 0.000641009
*RES
1 *879:Q *156:10 6.21 
2 *156:10 *768:A3 16.92 
3 *156:10 *156:27 6.39 
4 *156:27 *827:A1 10.8 
5 *156:27 *828:A1 9 
*END

*D_NET *157 0.00461727
*CONN
*I *761:A2 I *D gf180mcu_fd_sc_mcu7t5v0__and2_1
*I *918:Z O *D gf180mcu_fd_sc_mcu7t5v0__buf_1
*CAP
1 *761:A2 0.000797165
2 *918:Z 0.000797165
3 *761:A2 *784:A1 0
4 *761:A2 *864:RN 5.8566e-05
5 *761:A2 *865:RN 0.000807881
6 *761:A2 *949:I 0.000248323
7 *761:A2 *950:I 0.000534819
8 *763:A2 *761:A2 0.00105308
9 *785:B *761:A2 0.000320271
*RES
1 *918:Z *761:A2 28.08 
*END

*D_NET *158 0.0056461
*CONN
*I *834:A1 I *D gf180mcu_fd_sc_mcu7t5v0__nand2_1
*I *940:I I *D gf180mcu_fd_sc_mcu7t5v0__buf_2
*I *854:Q O *D gf180mcu_fd_sc_mcu7t5v0__dffrnq_1
*CAP
1 *834:A1 0.000427186
2 *940:I 0.00225198
3 *854:Q 3.70426e-05
4 *158:6 0.00271621
5 *834:A1 *857:RN 0
6 *834:A1 *172:14 0.000170705
7 *834:A1 *172:22 3.22348e-05
8 *940:I *854:RN 0
9 *832:A1 *834:A1 0
10 *832:B *834:A1 1.07374e-05
*RES
1 *854:Q *158:6 4.77 
2 *158:6 *940:I 31.32 
3 *158:6 *834:A1 16.74 
*END

*D_NET *159 0.00336011
*CONN
*I *941:I I *D gf180mcu_fd_sc_mcu7t5v0__buf_2
*I *838:A2 I *D gf180mcu_fd_sc_mcu7t5v0__nand3_1
*I *856:Q O *D gf180mcu_fd_sc_mcu7t5v0__dffrnq_1
*CAP
1 *941:I 0
2 *838:A2 0.000697457
3 *856:Q 0.000374108
4 *159:10 0.00107156
5 *838:A2 *750:I 0.000473735
6 *838:A2 *836:A1 0.000280683
7 *838:A2 *184:8 0
8 *159:10 *929:I 0.000222002
9 phase_state[0] *159:10 0.000240557
*RES
1 *856:Q *159:10 12.24 
2 *159:10 *838:A2 14.67 
3 *159:10 *941:I 9 
*END

*D_NET *160 0.00739146
*CONN
*I *942:I I *D gf180mcu_fd_sc_mcu7t5v0__buf_2
*I *751:I I *D gf180mcu_fd_sc_mcu7t5v0__clkinv_1
*I *857:Q O *D gf180mcu_fd_sc_mcu7t5v0__dffrnq_1
*CAP
1 *942:I 0.000558339
2 *751:I 0.000262899
3 *857:Q 8.39277e-05
4 *160:8 0.000905166
5 *942:I *170:10 0.00148901
6 *942:I *170:25 0.00082016
7 *942:I *205:12 0.000135043
8 *160:8 *857:RN 2.02272e-05
9 *832:A1 *751:I 0.000358559
10 *832:B *751:I 0.000174189
11 *833:B1 *942:I 0.00015073
12 *835:A1 *751:I 1.71254e-05
13 *835:A1 *942:I 0.000517694
14 *835:A2 *160:8 8.38699e-05
15 *835:B *751:I 0.000167288
16 *837:A1 *942:I 0.00074796
17 *842:A2 *942:I 1.24166e-05
18 *842:B *942:I 0
19 *70:20 *942:I 5.00391e-05
20 *112:18 *751:I 0.000391795
21 *112:29 *751:I 8.95802e-05
22 *112:29 *942:I 0.00011586
23 *115:8 *751:I 8.25538e-05
24 *125:27 *942:I 0.000157029
*RES
1 *857:Q *160:8 9.63 
2 *160:8 *751:I 12.78 
3 *160:8 *942:I 18.99 
*END

*D_NET *161 0.00110517
*CONN
*I *943:I I *D gf180mcu_fd_sc_mcu7t5v0__buf_2
*I *841:A1 I *D gf180mcu_fd_sc_mcu7t5v0__nand2_1
*I *858:Q O *D gf180mcu_fd_sc_mcu7t5v0__dffrnq_1
*CAP
1 *943:I 0
2 *841:A1 0.000152412
3 *858:Q 0.000295789
4 *161:10 0.0004482
5 *841:A1 *170:32 0.000106536
6 *841:A1 *185:12 5.06377e-06
7 *161:10 *174:31 9.07674e-05
8 votes_in_phase[0] *161:10 6.40324e-06
*RES
1 *858:Q *161:10 10.98 
2 *161:10 *841:A1 10.26 
3 *161:10 *943:I 9 
*END

*D_NET *162 0.00283152
*CONN
*I *944:I I *D gf180mcu_fd_sc_mcu7t5v0__buf_2
*I *843:A1 I *D gf180mcu_fd_sc_mcu7t5v0__nand2_1
*I *859:Q O *D gf180mcu_fd_sc_mcu7t5v0__dffrnq_1
*CAP
1 *944:I 8.7984e-05
2 *843:A1 7.17722e-05
3 *859:Q 0.000464242
4 *162:10 0.000623998
5 *843:A1 *844:A1 3.45237e-05
6 *843:A1 *174:31 4.21768e-05
7 *843:A1 *186:10 0.000445488
8 *944:I *859:RN 3.01487e-05
9 *944:I *860:RN 0.000548377
10 *944:I *174:44 0.000164525
11 *944:I *186:12 6.02974e-05
12 *162:10 *174:31 0.000110787
13 *162:10 *185:12 5.3289e-05
14 *162:10 *186:10 9.39061e-05
15 votes_in_phase[1] *162:10 0
*RES
1 *859:Q *162:10 12.06 
2 *162:10 *843:A1 10.17 
3 *162:10 *944:I 10.71 
*END

*D_NET *163 0.00270342
*CONN
*I *945:I I *D gf180mcu_fd_sc_mcu7t5v0__buf_2
*I *845:A1 I *D gf180mcu_fd_sc_mcu7t5v0__nand2_1
*I *860:Q O *D gf180mcu_fd_sc_mcu7t5v0__dffrnq_1
*CAP
1 *945:I 0
2 *845:A1 0.000310346
3 *860:Q 0.000644678
4 *163:10 0.000955023
5 *845:A1 *845:A2 0.000137127
6 *845:A1 *171:12 0.00015651
7 *845:A1 *171:27 9.85004e-05
8 *163:10 *174:44 0
9 *163:10 *174:55 0
10 votes_in_phase[2] *163:10 0.000368997
11 *871:D *845:A1 3.22348e-05
*RES
1 *860:Q *163:10 13.5 
2 *163:10 *845:A1 11.7 
3 *163:10 *945:I 9 
*END

*D_NET *164 0.00222538
*CONN
*I *946:I I *D gf180mcu_fd_sc_mcu7t5v0__buf_2
*I *847:A1 I *D gf180mcu_fd_sc_mcu7t5v0__nand2_1
*I *861:Q O *D gf180mcu_fd_sc_mcu7t5v0__dffrnq_1
*CAP
1 *946:I 0
2 *847:A1 0.000344653
3 *861:Q 0.000438094
4 *164:10 0.000782747
5 *847:A1 *171:34 0.000223398
6 *847:A1 *174:55 0.000109002
7 *164:10 *861:RN 0
8 votes_in_phase[3] *164:10 0.000233987
9 *871:D *847:A1 9.30128e-05
10 *143:10 *847:A1 4.89196e-07
*RES
1 *861:Q *164:10 12.06 
2 *164:10 *847:A1 11.88 
3 *164:10 *946:I 9 
*END

*D_NET *165 0.00233847
*CONN
*I *947:I I *D gf180mcu_fd_sc_mcu7t5v0__buf_2
*I *849:A1 I *D gf180mcu_fd_sc_mcu7t5v0__nand2_1
*I *862:Q O *D gf180mcu_fd_sc_mcu7t5v0__dffrnq_1
*CAP
1 *947:I 0.000134031
2 *849:A1 0.000364618
3 *862:Q 0.000161277
4 *165:8 0.000659926
5 *849:A1 *851:A2 8.69474e-05
6 *849:A1 *171:42 0.000231442
7 *947:I *851:A2 0
8 *947:I *861:RN 3.01487e-05
9 *947:I *862:RN 0.000649549
10 votes_out_phase[0] *165:8 2.05328e-05
*RES
1 *862:Q *165:8 10.17 
2 *165:8 *849:A1 11.88 
3 *165:8 *947:I 10.71 
*END

*D_NET *166 0.00199966
*CONN
*I *948:I I *D gf180mcu_fd_sc_mcu7t5v0__buf_2
*I *851:A1 I *D gf180mcu_fd_sc_mcu7t5v0__nand2_1
*I *863:Q O *D gf180mcu_fd_sc_mcu7t5v0__dffrnq_1
*CAP
1 *948:I 0.000123788
2 *851:A1 0.000275556
3 *863:Q 0.000152996
4 *166:8 0.00055234
5 *851:A1 *171:42 0.000231442
6 *948:I *862:RN 0.000123639
7 *948:I *863:RN 0.000256675
8 *782:B *851:A1 0.000283225
*RES
1 *863:Q *166:8 9.99 
2 *166:8 *851:A1 11.88 
3 *166:8 *948:I 10.71 
*END

*D_NET *167 0.00267803
*CONN
*I *949:I I *D gf180mcu_fd_sc_mcu7t5v0__buf_2
*I *781:A1 I *D gf180mcu_fd_sc_mcu7t5v0__nand2_1
*I *864:Q O *D gf180mcu_fd_sc_mcu7t5v0__dffrnq_1
*CAP
1 *949:I 0.000272041
2 *781:A1 0.000267527
3 *864:Q 3.44897e-05
4 *167:6 0.000574057
5 *781:A1 *784:A2 0
6 *781:A1 *862:RN 0
7 *781:A1 *863:RN 0.000231442
8 *781:A1 *864:RN 0.000248583
9 *949:I *862:RN 0.000413794
10 *949:I *864:RN 2.23145e-05
11 *949:I *950:I 0.000365454
12 *761:A2 *949:I 0.000248323
*RES
1 *864:Q *167:6 4.77 
2 *167:6 *781:A1 7.11 
3 *167:6 *949:I 8.28 
*END

*D_NET *168 0.00767957
*CONN
*I *753:A2 I *D gf180mcu_fd_sc_mcu7t5v0__and2_1
*I *919:Z O *D gf180mcu_fd_sc_mcu7t5v0__buf_1
*CAP
1 *753:A2 0.00145647
2 *919:Z 0.00145647
3 *753:A2 *757:A2 7.44849e-05
4 *753:A2 *762:A1 0.000152267
5 *753:A2 *880:RN 0.000187771
6 *753:A2 *884:RN 0
7 *753:A2 *917:I 0.000425819
8 *753:A2 *935:I 0.000169927
9 *753:A2 *957:I 0.000126715
10 *753:A2 *960:I 0.000965934
11 *753:A2 *176:14 0.000428252
12 *753:A2 *176:38 0.000332738
13 *753:A2 *177:10 0.000303846
14 *753:A2 *177:12 0.000180317
15 *753:A2 *177:18 0.000366852
16 *753:A2 *192:12 0
17 *753:A2 *192:34 0.000436017
18 *753:A2 *195:10 0
19 *753:A2 *196:10 2.55518e-05
20 *753:A2 *201:17 0.000215668
21 *753:A2 *201:53 4.53707e-05
22 *881:D *753:A2 0.000305335
23 *883:D *753:A2 2.37695e-05
*RES
1 *919:Z *753:A2 40.5 
*END

*D_NET *169 0.00455072
*CONN
*I *950:I I *D gf180mcu_fd_sc_mcu7t5v0__buf_2
*I *784:A1 I *D gf180mcu_fd_sc_mcu7t5v0__nand2_1
*I *865:Q O *D gf180mcu_fd_sc_mcu7t5v0__dffrnq_1
*CAP
1 *950:I 0.000384347
2 *784:A1 0.000621384
3 *865:Q 0
4 *169:4 0.00100573
5 *784:A1 *864:RN 0
6 *784:A1 *865:RN 0
7 *950:I *862:RN 0.00084548
8 *950:I *883:RN 0.000231975
9 votes_out_phase[3] *950:I 0.00050482
10 *761:A2 *784:A1 0
11 *761:A2 *950:I 0.000534819
12 *762:A2 *950:I 2.44752e-05
13 *763:A2 *784:A1 0
14 *918:I *950:I 3.22348e-05
15 *949:I *950:I 0.000365454
*RES
1 *865:Q *169:4 4.5 
2 *169:4 *784:A1 17.64 
3 *169:4 *950:I 10.98 
*END

*D_NET *170 0.00856166
*CONN
*I *955:I I *D gf180mcu_fd_sc_mcu7t5v0__buf_1
*I *843:A2 I *D gf180mcu_fd_sc_mcu7t5v0__nand2_1
*I *841:A2 I *D gf180mcu_fd_sc_mcu7t5v0__nand2_1
*I *923:I I *D gf180mcu_fd_sc_mcu7t5v0__buf_2
*I *910:Z O *D gf180mcu_fd_sc_mcu7t5v0__dlyb_1
*CAP
1 *955:I 0.000146249
2 *843:A2 0
3 *841:A2 0
4 *923:I 0
5 *910:Z 0.000208883
6 *170:32 0.000614347
7 *170:25 0.00103539
8 *170:10 0.000776179
9 *955:I *171:12 5.78854e-06
10 *955:I *174:44 3.12451e-05
11 *955:I *186:10 0.000518371
12 *170:25 *851:A2 0.000151313
13 *170:25 *185:12 0
14 *170:25 *205:12 0.00027458
15 *170:32 *851:A2 7.70675e-05
16 *170:32 *859:RN 4.08956e-05
17 *170:32 *171:12 2.89427e-06
18 *170:32 *174:44 0.000163704
19 *170:32 *185:12 0
20 *779:A1 *170:10 0.000150744
21 *835:A1 *170:10 0.000417214
22 *837:A2 *170:10 0.000227818
23 *837:A2 *170:25 2.63343e-05
24 *841:A1 *170:32 0.000106536
25 *842:B *170:25 0.000664622
26 *924:I *170:25 0.000223398
27 *942:I *170:10 0.00148901
28 *942:I *170:25 0.00082016
29 *69:12 *170:10 0.000158798
30 *115:8 *170:10 0.000230116
*RES
1 *910:Z *170:10 13.5 
2 *170:10 *923:I 9 
3 *170:10 *170:25 11.79 
4 *170:25 *841:A2 4.5 
5 *170:25 *170:32 3.69 
6 *170:32 *843:A2 4.5 
7 *170:32 *955:I 15.12 
*END

*D_NET *171 0.0100249
*CONN
*I *849:A2 I *D gf180mcu_fd_sc_mcu7t5v0__nand2_1
*I *781:A2 I *D gf180mcu_fd_sc_mcu7t5v0__nand2_1
*I *784:A2 I *D gf180mcu_fd_sc_mcu7t5v0__nand2_1
*I *847:A2 I *D gf180mcu_fd_sc_mcu7t5v0__nand2_1
*I *845:A2 I *D gf180mcu_fd_sc_mcu7t5v0__nand2_1
*I *955:Z O *D gf180mcu_fd_sc_mcu7t5v0__buf_1
*CAP
1 *849:A2 0
2 *781:A2 0.000141302
3 *784:A2 0.000405635
4 *847:A2 0
5 *845:A2 6.40266e-05
6 *955:Z 0.00067838
7 *171:42 0.00130861
8 *171:34 0.000914189
9 *171:27 0.00025606
10 *171:12 0.000845947
11 *784:A2 *863:RN 0
12 *784:A2 *864:RN 0
13 *171:12 *851:A2 0.000965782
14 *171:12 *174:44 6.32135e-05
15 *171:12 *174:55 4.65411e-05
16 *171:27 *851:A2 0.00103978
17 *171:34 *851:A2 0.00097681
18 *171:42 *851:A2 0.000207256
19 *781:A1 *784:A2 0
20 *782:B *781:A2 0
21 *782:B *171:42 0
22 *845:A1 *845:A2 0.000137127
23 *845:A1 *171:12 0.00015651
24 *845:A1 *171:27 9.85004e-05
25 *847:A1 *171:34 0.000223398
26 *849:A1 *171:42 0.000231442
27 *851:A1 *171:42 0.000231442
28 *860:D *171:12 5.9617e-05
29 *862:D *171:42 0
30 *863:D *171:42 0
31 *871:D *845:A2 0.000106536
32 *871:D *171:27 0.000326528
33 *871:D *171:34 4.55112e-05
34 *871:CLK *171:12 0.000486049
35 *955:I *171:12 5.78854e-06
36 *170:32 *171:12 2.89427e-06
*RES
1 *955:Z *171:12 16.11 
2 *171:12 *845:A2 9.72 
3 *171:12 *171:27 7.29 
4 *171:27 *847:A2 4.5 
5 *171:27 *171:34 2.61 
6 *171:34 *171:42 10.53 
7 *171:42 *784:A2 11.61 
8 *171:42 *781:A2 10.17 
9 *171:34 *849:A2 4.5 
*END

*D_NET *172 0.0110386
*CONN
*I *834:A2 I *D gf180mcu_fd_sc_mcu7t5v0__nand2_1
*I *817:A2 I *D gf180mcu_fd_sc_mcu7t5v0__nand2_1
*I *823:A1 I *D gf180mcu_fd_sc_mcu7t5v0__nand2_1
*I *923:Z O *D gf180mcu_fd_sc_mcu7t5v0__buf_2
*CAP
1 *834:A2 0
2 *817:A2 0
3 *823:A1 0.000199131
4 *923:Z 0.00062584
5 *172:22 0.00148122
6 *172:14 0.00190793
7 *823:A1 *878:RN 3.55118e-05
8 *823:A1 *188:10 0.000171937
9 *823:A1 *191:22 0.00037349
10 *769:A2 *172:22 8.49208e-05
11 *769:A3 *172:22 0.00082525
12 *793:A4 *172:22 1.18076e-06
13 *821:A1 *172:22 6.1427e-06
14 *822:I *172:22 0
15 *823:A2 *823:A1 0.000365454
16 *824:A1 *172:22 0
17 *824:A2 *172:22 0.000101415
18 *825:A4 *823:A1 0.000114555
19 *832:B *172:22 9.702e-05
20 *834:A1 *172:14 0.000170705
21 *834:A1 *172:22 3.22348e-05
22 *835:B *172:14 0.000205505
23 *836:A2 *172:14 8.53393e-05
24 *837:A2 *172:14 0.000263273
25 *840:B1 *823:A1 3.54166e-05
26 *840:B1 *172:22 3.17451e-05
27 *842:B *172:14 2.08042e-05
28 *854:CLK *172:14 5.47541e-05
29 *855:D *172:14 3.12451e-05
30 *856:D *172:14 0.000543162
31 *858:D *172:14 0.000130834
32 *869:CLK *172:22 0
33 *65:20 *823:A1 0
34 *65:20 *172:22 0
35 *65:40 *172:22 0
36 *85:55 *823:A1 0
37 *106:8 *823:A1 1.70018e-05
38 *106:8 *172:22 6.0354e-06
39 *115:8 *172:14 0.00260853
40 *153:29 *172:22 0.000133982
41 *153:40 *172:22 0.000277049
*RES
1 *923:Z *172:14 23.31 
2 *172:14 *172:22 15.39 
3 *172:22 *823:A1 11.52 
4 *172:22 *817:A2 9 
5 *172:14 *834:A2 4.5 
*END

*D_NET *173 0.00933168
*CONN
*I *851:A2 I *D gf180mcu_fd_sc_mcu7t5v0__nand2_1
*I *956:Z O *D gf180mcu_fd_sc_mcu7t5v0__dlyb_1
*CAP
1 *851:A2 0.00218888
2 *956:Z 0.00218888
3 *851:A2 *861:RN 0
4 *851:A2 *174:55 0
5 *844:B *851:A2 0.00035741
6 *846:B *851:A2 0.000586885
7 *849:A1 *851:A2 8.69474e-05
8 *859:D *851:A2 1.10551e-05
9 *871:D *851:A2 7.55765e-06
10 *871:CLK *851:A2 0.000486049
11 *947:I *851:A2 0
12 *170:25 *851:A2 0.000151313
13 *170:32 *851:A2 7.70675e-05
14 *171:12 *851:A2 0.000965782
15 *171:27 *851:A2 0.00103978
16 *171:34 *851:A2 0.00097681
17 *171:42 *851:A2 0.000207256
*RES
1 *956:Z *851:A2 30.06 
*END

*D_NET *174 0.0183286
*CONN
*I *852:A1 I *D gf180mcu_fd_sc_mcu7t5v0__oai21_1
*I *785:A1 I *D gf180mcu_fd_sc_mcu7t5v0__oai21_1
*I *782:A1 I *D gf180mcu_fd_sc_mcu7t5v0__oai21_1
*I *848:A1 I *D gf180mcu_fd_sc_mcu7t5v0__oai21_1
*I *850:A1 I *D gf180mcu_fd_sc_mcu7t5v0__oai21_1
*I *846:A1 I *D gf180mcu_fd_sc_mcu7t5v0__oai21_1
*I *844:A1 I *D gf180mcu_fd_sc_mcu7t5v0__oai21_1
*I *842:A1 I *D gf180mcu_fd_sc_mcu7t5v0__oai21_1
*I *924:Z O *D gf180mcu_fd_sc_mcu7t5v0__buf_2
*CAP
1 *852:A1 0
2 *785:A1 0.000282594
3 *782:A1 0.000269626
4 *848:A1 0
5 *850:A1 0.000818994
6 *846:A1 0
7 *844:A1 0.000302719
8 *842:A1 0.000882022
9 *924:Z 3.868e-05
10 *174:90 0.000905599
11 *174:86 0.000703413
12 *174:55 0.00161261
13 *174:44 0.00168582
14 *174:31 0.00146764
15 *174:6 0.00154345
16 *842:A1 *856:RN 0.000736801
17 *842:A1 *929:I 2.31089e-05
18 *842:A1 *184:8 0.000374377
19 *842:A1 *185:16 0.000211144
20 *842:A1 *205:12 0
21 *844:A1 *186:10 3.3015e-05
22 *174:6 *185:16 1.90777e-06
23 *174:31 *185:12 0.00135099
24 *174:31 *185:16 6.97616e-05
25 *174:44 *859:RN 5.3289e-05
26 *174:44 *860:RN 6.26074e-05
27 *174:55 *861:RN 0.000248121
28 phase_state[1] *842:A1 0.000123376
29 votes_in_phase[0] *174:31 0.00015997
30 votes_in_phase[2] *174:55 0
31 *805:A2 *850:A1 3.07932e-05
32 *806:A2 *850:A1 6.5235e-06
33 *807:A2 *850:A1 0.000145424
34 *836:A2 *842:A1 5.96002e-05
35 *842:B *842:A1 0.00023504
36 *843:A1 *844:A1 3.45237e-05
37 *843:A1 *174:31 4.21768e-05
38 *844:B *844:A1 4.82122e-05
39 *847:A1 *174:55 0.000109002
40 *851:A2 *174:55 0
41 *853:CLK *842:A1 8.42806e-05
42 *854:CLK *842:A1 0.000189295
43 *860:D *174:44 0.000436478
44 *862:D *174:86 0.000116022
45 *862:CLK *782:A1 5.97457e-06
46 *862:CLK *174:86 0.000108516
47 *862:CLK *174:90 9.84776e-05
48 *863:D *174:90 0.000142874
49 *864:D *782:A1 0.000217463
50 *865:D *785:A1 0
51 *871:D *850:A1 8.66127e-05
52 *871:D *174:55 0.00018095
53 *944:I *174:44 0.000164525
54 *955:I *174:44 3.12451e-05
55 *98:12 *850:A1 1.0415e-05
56 *139:6 *782:A1 3.55118e-05
57 *139:6 *785:A1 0.000400957
58 *139:20 *785:A1 0.000496785
59 *139:41 *782:A1 0.00026197
60 *139:41 *174:90 0.000112253
61 *152:14 *782:A1 0
62 *161:10 *174:31 9.07674e-05
63 *162:10 *174:31 0.000110787
64 *163:10 *174:44 0
65 *163:10 *174:55 0
66 *170:32 *174:44 0.000163704
67 *171:12 *174:44 6.32135e-05
68 *171:12 *174:55 4.65411e-05
*RES
1 *924:Z *174:6 4.77 
2 *174:6 *842:A1 23.76 
3 *174:6 *174:31 11.43 
4 *174:31 *844:A1 11.43 
5 *174:31 *174:44 9.63 
6 *174:44 *846:A1 4.5 
7 *174:44 *174:55 12.96 
8 *174:55 *850:A1 12.42 
9 *174:55 *848:A1 9 
10 *850:A1 *174:86 7.65 
11 *174:86 *174:90 3.33 
12 *174:90 *782:A1 6.93 
13 *174:90 *785:A1 7.38 
14 *174:86 *852:A1 4.5 
*END

*D_NET *175 0.0169454
*CONN
*I *796:A1 I *D gf180mcu_fd_sc_mcu7t5v0__nor2_1
*I *805:A1 I *D gf180mcu_fd_sc_mcu7t5v0__nor2_1
*I *807:A1 I *D gf180mcu_fd_sc_mcu7t5v0__nor2_1
*I *815:A1 I *D gf180mcu_fd_sc_mcu7t5v0__nor2_1
*I *814:A2 I *D gf180mcu_fd_sc_mcu7t5v0__nor2_1
*I *813:A1 I *D gf180mcu_fd_sc_mcu7t5v0__nor2_1
*I *810:A1 I *D gf180mcu_fd_sc_mcu7t5v0__nor2_1
*I *801:A1 I *D gf180mcu_fd_sc_mcu7t5v0__nor2_1
*I *925:Z O *D gf180mcu_fd_sc_mcu7t5v0__buf_2
*CAP
1 *796:A1 0.000600736
2 *805:A1 0
3 *807:A1 0.000171628
4 *815:A1 0.000507504
5 *814:A2 0
6 *813:A1 1.81113e-05
7 *810:A1 0.00019369
8 *801:A1 0
9 *925:Z 2.12804e-05
10 *175:85 0.000580797
11 *175:63 0.00101433
12 *175:55 0.000952753
13 *175:29 0.000608621
14 *175:27 0.00259584
15 *175:14 0.00247805
16 *175:8 0.000937809
17 *807:A1 *775:A2 2.55518e-05
18 *810:A1 *914:I 3.92155e-05
19 *815:A1 *764:A1 0
20 *815:A1 *211:26 0.000217889
21 *175:27 *766:A2 0.000163628
22 *175:63 *211:26 0.000190213
23 *774:A1 *175:29 0.000255088
24 *774:A2 *175:29 0
25 *775:A4 *175:29 0.000144938
26 *775:A4 *175:55 8.91539e-05
27 *775:A4 *175:85 8.42806e-05
28 *793:A4 *175:14 0
29 *805:A2 *807:A1 0.000104836
30 *805:A2 *175:85 1.61174e-05
31 *808:A2 *175:63 0
32 *809:A1 *175:63 0.000347955
33 *809:A2 *175:63 2.14748e-05
34 *810:A2 *810:A1 9.84908e-05
35 *810:A2 *175:29 0
36 *810:A2 *175:85 0
37 *811:A1 *175:29 6.42055e-05
38 *811:A1 *175:55 0.000228435
39 *811:A1 *175:63 9.04462e-05
40 *811:A1 *175:85 9.39061e-05
41 *812:A1 *175:63 1.19491e-05
42 *812:A2 *175:63 0.000506201
43 *813:A2 *813:A1 3.98088e-05
44 *814:A1 *175:63 0.000142831
45 *824:A1 *796:A1 5.31501e-05
46 *824:A1 *175:14 8.73645e-05
47 *830:B *807:A1 0
48 *830:B *175:85 3.64412e-05
49 *839:A2 *796:A1 0.000714788
50 *844:A2 *796:A1 4.85425e-05
51 *850:A2 *175:85 0.000160708
52 *868:CLK *796:A1 4.83522e-05
53 *869:D *796:A1 2.54766e-05
54 *869:D *175:14 7.52558e-05
55 *870:D *807:A1 3.01487e-05
56 *873:D *810:A1 0.000169917
57 *873:D *175:29 4.34691e-05
58 *874:D *815:A1 0.000356005
59 *874:CLK *815:A1 0
60 *875:D *815:A1 7.003e-06
61 *875:D *175:63 3.92088e-05
62 *885:D *815:A1 0.000128431
63 *3:22 *813:A1 3.98088e-05
64 *79:10 *796:A1 6.7943e-05
65 *90:8 *796:A1 0.000209514
66 *113:26 *807:A1 0.000106536
67 *113:26 *175:8 6.68593e-05
68 *113:26 *175:85 0.000480025
69 *136:8 *796:A1 3.58e-05
70 *141:10 *175:8 0.000164036
71 *152:22 *807:A1 0
72 *152:22 *175:85 9.2838e-05
*RES
1 *925:Z *175:8 9.45 
2 *175:8 *175:14 7.02 
3 *175:14 *801:A1 13.5 
4 *175:14 *175:27 16.83 
5 *175:27 *175:29 3.33 
6 *175:29 *810:A1 10.8 
7 *175:29 *813:A1 9.27 
8 *175:27 *175:55 0.63 
9 *175:55 *175:63 10.17 
10 *175:63 *814:A2 4.5 
11 *175:63 *815:A1 9.18 
12 *175:55 *175:85 8.55 
13 *175:85 *807:A1 14.94 
14 *175:85 *805:A1 4.5 
15 *175:8 *796:A1 15.66 
*END

*D_NET *176 0.0115112
*CONN
*I *756:A1 I *D gf180mcu_fd_sc_mcu7t5v0__and2_1
*I *761:A1 I *D gf180mcu_fd_sc_mcu7t5v0__and2_1
*I *752:A2 I *D gf180mcu_fd_sc_mcu7t5v0__and2_1
*I *926:I I *D gf180mcu_fd_sc_mcu7t5v0__buf_2
*I *755:A1 I *D gf180mcu_fd_sc_mcu7t5v0__and2_1
*I *911:Z O *D gf180mcu_fd_sc_mcu7t5v0__dlyb_1
*CAP
1 *756:A1 0
2 *761:A1 0.00151815
3 *752:A2 0.000252191
4 *926:I 0.000297363
5 *755:A1 0
6 *911:Z 0.000295534
7 *176:42 0.00205692
8 *176:38 0.000896577
9 *176:18 0.000349354
10 *176:14 0.000957519
11 *761:A1 *885:RN 0.000283675
12 *926:I *957:I 5.60661e-06
13 *926:I *177:10 1.39839e-05
14 *926:I *182:22 0
15 *176:14 *755:A2 0.00023968
16 *176:14 *917:I 0.00032797
17 *176:14 *960:I 6.58629e-05
18 *176:14 *177:47 1.17725e-05
19 *176:18 *755:A2 1.39839e-05
20 *176:38 *755:A2 0.000174506
21 *176:38 *756:A2 0.000356899
22 *176:38 *892:RN 8.69474e-05
23 *176:38 *960:I 0.000197589
24 *176:38 *196:10 0.000812469
25 *753:A2 *176:14 0.000428252
26 *753:A2 *176:38 0.000332738
27 *785:A2 *761:A1 0
28 *785:B *761:A1 0.000546617
29 *815:A2 *761:A1 0
30 *864:D *761:A1 4.81899e-05
31 *874:D *761:A1 3.96454e-05
32 *875:D *761:A1 0
33 *880:D *176:38 5.04083e-05
34 *880:CLK *176:14 1.18076e-06
35 *880:CLK *176:38 5.26892e-05
36 *882:D *761:A1 0.000166364
37 *886:D *176:14 0
38 *893:CLK *176:38 0.000229163
39 *893:CLK *176:42 0.00015997
40 *3:22 *176:42 0.000116082
41 *132:53 *176:42 3.63092e-05
42 *138:43 *176:14 8.90578e-05
*RES
1 *911:Z *176:14 13.5 
2 *176:14 *176:18 4.77 
3 *176:18 *755:A1 4.5 
4 *176:18 *926:I 6.12 
5 *176:14 *176:38 12.78 
6 *176:38 *176:42 7.11 
7 *176:42 *752:A2 10.71 
8 *176:42 *761:A1 21.69 
9 *176:38 *756:A1 4.5 
*END

*D_NET *177 0.0115487
*CONN
*I *760:A1 I *D gf180mcu_fd_sc_mcu7t5v0__and2_1
*I *759:A1 I *D gf180mcu_fd_sc_mcu7t5v0__and2_1
*I *758:A1 I *D gf180mcu_fd_sc_mcu7t5v0__and2_1
*I *757:A1 I *D gf180mcu_fd_sc_mcu7t5v0__and2_1
*I *753:A1 I *D gf180mcu_fd_sc_mcu7t5v0__and2_1
*I *754:A1 I *D gf180mcu_fd_sc_mcu7t5v0__and2_1
*I *926:Z O *D gf180mcu_fd_sc_mcu7t5v0__buf_2
*CAP
1 *760:A1 0.000674934
2 *759:A1 0.000190803
3 *758:A1 0.000100182
4 *757:A1 5.18671e-05
5 *753:A1 0
6 *754:A1 0.000318252
7 *926:Z 8.51961e-05
8 *177:66 0.0013489
9 *177:47 0.00156433
10 *177:18 0.00066033
11 *177:12 0.000423333
12 *177:10 0.00109557
13 *757:A1 *911:I 1.4382e-06
14 *758:A1 *758:A2 0.000169908
15 *759:A1 *759:A2 0.000585119
16 *760:A1 *182:22 7.5133e-05
17 *760:A1 *197:10 7.5133e-05
18 *177:10 *957:I 0.000968503
19 *177:12 *911:I 0.000393153
20 *177:12 *957:I 0.000210938
21 *177:18 *911:I 0.000448049
22 *177:18 *917:I 1.23523e-05
23 *177:18 *201:8 4.43811e-05
24 *177:47 *886:RN 2.08566e-05
25 *177:47 *890:RN 7.84068e-05
26 *177:47 *891:RN 0
27 *177:47 *198:6 4.34467e-06
28 *177:66 *758:A2 0.000138305
29 *177:66 *759:A2 5.82191e-05
30 *177:66 *887:RN 0.000321144
31 *177:66 *198:6 0.0001353
32 *753:A2 *177:10 0.000303846
33 *753:A2 *177:12 0.000180317
34 *753:A2 *177:18 0.000366852
35 *886:D *757:A1 1.86887e-06
36 *889:D *760:A1 0
37 *890:D *754:A1 0
38 *890:CLK *754:A1 2.65444e-06
39 *906:I *177:47 3.01487e-05
40 *906:I *177:66 6.35387e-05
41 *926:I *177:10 1.39839e-05
42 *137:10 *177:66 0.000165322
43 *137:14 *758:A1 0
44 *137:53 *759:A1 0.000154028
45 *176:14 *177:47 1.17725e-05
*RES
1 *926:Z *177:10 11.7 
2 *177:10 *177:12 1.53 
3 *177:12 *177:18 8.64 
4 *177:18 *754:A1 6.66 
5 *177:18 *753:A1 4.5 
6 *177:12 *757:A1 9.27 
7 *177:10 *177:47 15.03 
8 *177:47 *758:A1 9.99 
9 *177:47 *177:66 13.77 
10 *177:66 *759:A1 11.43 
11 *177:66 *760:A1 13.14 
*END

*D_NET *178 0.00560585
*CONN
*I *957:I I *D gf180mcu_fd_sc_mcu7t5v0__buf_1
*I *911:I I *D gf180mcu_fd_sc_mcu7t5v0__dlyb_1
*I *912:Z O *D gf180mcu_fd_sc_mcu7t5v0__dlyb_1
*CAP
1 *957:I 0.000113047
2 *911:I 0.000189608
3 *912:Z 0
4 *178:6 0.000302655
5 *911:I *757:A2 0.000536348
6 *911:I *201:8 0.000129096
7 *957:I *757:A2 0.00175737
8 *957:I *182:22 5.60661e-06
9 *753:A2 *957:I 0.000126715
10 *757:A1 *911:I 1.4382e-06
11 *886:D *911:I 0.000417717
12 *926:I *957:I 5.60661e-06
13 *177:10 *957:I 0.000968503
14 *177:12 *911:I 0.000393153
15 *177:12 *957:I 0.000210938
16 *177:18 *911:I 0.000448049
*RES
1 *912:Z *178:6 9 
2 *178:6 *911:I 12.42 
3 *178:6 *957:I 13.68 
*END

*D_NET *179 0.0054115
*CONN
*I *757:A2 I *D gf180mcu_fd_sc_mcu7t5v0__and2_1
*I *920:Z O *D gf180mcu_fd_sc_mcu7t5v0__buf_1
*CAP
1 *757:A2 0.000113523
2 *920:Z 0.000113523
3 *757:A2 *182:22 9.04462e-05
4 *757:A2 *201:8 0.00105679
5 *757:A2 *201:17 0.00163777
6 *753:A2 *757:A2 7.44849e-05
7 *911:I *757:A2 0.000536348
8 *920:I *757:A2 3.12451e-05
9 *957:I *757:A2 0.00175737
*RES
1 *920:Z *757:A2 25.02 
*END

*D_NET *180 0.00799343
*CONN
*I *838:A1 I *D gf180mcu_fd_sc_mcu7t5v0__nand3_1
*I *771:A1 I *D gf180mcu_fd_sc_mcu7t5v0__nand2_2
*I *745:I I *D gf180mcu_fd_sc_mcu7t5v0__clkinv_1
*I *927:Z O *D gf180mcu_fd_sc_mcu7t5v0__clkbuf_1
*CAP
1 *838:A1 0.00097651
2 *771:A1 1.54327e-05
3 *745:I 4.64589e-05
4 *927:Z 0.00038805
5 *180:21 0.00120738
6 *180:10 0.000649943
7 *180:10 *780:A1 0.000176487
8 *771:A2 *180:10 4.34691e-05
9 *771:A2 *180:21 0.000162064
10 *780:A2 *180:10 0.000167278
11 *831:A2 *180:10 0
12 *833:A2 *838:A1 0.000451501
13 *836:A2 *838:A1 7.72732e-05
14 *839:B *838:A1 2.40933e-06
15 *853:D *838:A1 0
16 *853:CLK *838:A1 0.00048874
17 *856:D *838:A1 5.03319e-05
18 *858:D *838:A1 0.000779233
19 *868:D *745:I 0
20 *868:D *771:A1 0.000104268
21 *868:CLK *771:A1 0.000240538
22 *895:I *180:10 8.02376e-06
23 *924:I *838:A1 3.85778e-05
24 *956:I *180:21 0
25 *69:8 *180:10 0.000180463
26 *70:8 *838:A1 1.94121e-05
27 *70:8 *180:21 4.30894e-05
28 *79:10 *180:10 0
29 *112:18 *180:10 0.000460717
30 *135:18 *838:A1 7.20334e-05
31 *135:20 *838:A1 0.000398973
32 *135:22 *838:A1 0.000319162
33 *141:10 *180:10 0.000425609
*RES
1 *927:Z *180:10 14.04 
2 *180:10 *745:I 9.27 
3 *180:10 *180:21 1.89 
4 *180:21 *771:A1 9.63 
5 *180:21 *838:A1 19.53 
*END

*D_NET *181 0.0112969
*CONN
*I *780:A1 I *D gf180mcu_fd_sc_mcu7t5v0__nand2_2
*I *927:I I *D gf180mcu_fd_sc_mcu7t5v0__clkbuf_1
*I *825:A1 I *D gf180mcu_fd_sc_mcu7t5v0__nand4_1
*I *816:A1 I *D gf180mcu_fd_sc_mcu7t5v0__nand3_1
*I *928:Z O *D gf180mcu_fd_sc_mcu7t5v0__clkbuf_2
*CAP
1 *780:A1 0.000357851
2 *927:I 2.27675e-05
3 *825:A1 0.000266454
4 *816:A1 0.00016084
5 *928:Z 0.000331282
6 *181:32 0.000835056
7 *181:19 0.000720891
8 *181:8 0.000492122
9 *780:A1 *868:RN 7.23104e-05
10 *825:A1 *878:RN 6.1883e-05
11 *181:8 *182:39 3.22122e-05
12 *181:8 *191:22 1.58709e-05
13 *748:I *816:A1 2.36914e-05
14 *749:I *825:A1 0
15 *768:A3 *825:A1 0.000498061
16 *768:A3 *181:8 2.40587e-06
17 *769:A3 *181:32 0.00064268
18 *780:A2 *780:A1 6.38612e-06
19 *780:A2 *181:32 2.55518e-05
20 *818:B *816:A1 0.00115829
21 *818:B *181:8 0.000189809
22 *823:A2 *181:8 6.76694e-05
23 *824:A1 *780:A1 0
24 *824:A1 *181:32 0
25 *824:B *181:8 0.000223401
26 *825:A3 *825:A1 5.97457e-06
27 *825:A3 *181:8 0.000119985
28 *825:A4 *181:8 0.000620071
29 *828:A2 *825:A1 2.43273e-05
30 *869:CLK *181:32 0.000347314
31 *876:D *816:A1 8.52638e-05
32 *66:53 *816:A1 0.000961972
33 *66:53 *181:8 0.000750193
34 *79:10 *780:A1 4.96595e-05
35 *85:10 *181:8 6.31783e-05
36 *85:55 *181:8 0.000723932
37 *104:14 *825:A1 0.000146183
38 *104:14 *181:32 6.08466e-05
39 *112:18 *780:A1 0.000219114
40 *113:26 *927:I 0.000235076
41 *141:10 *927:I 9.91104e-05
42 *153:42 *181:32 5.30918e-06
43 *154:19 *825:A1 2.19668e-05
44 *154:27 *825:A1 5.92385e-05
45 *154:27 *181:32 0.00031278
46 *156:10 *181:8 1.4382e-06
47 *180:10 *780:A1 0.000176487
*RES
1 *928:Z *181:8 10.26 
2 *181:8 *816:A1 8.28 
3 *181:8 *181:19 4.5 
4 *181:19 *825:A1 12.06 
5 *181:19 *181:32 5.31 
6 *181:32 *927:I 9.63 
7 *181:32 *780:A1 11.88 
*END

*D_NET *182 0.0156516
*CONN
*I *786:A2 I *D gf180mcu_fd_sc_mcu7t5v0__nand3_1
*I *787:A1 I *D gf180mcu_fd_sc_mcu7t5v0__nand2_1
*I *928:I I *D gf180mcu_fd_sc_mcu7t5v0__clkbuf_2
*I *789:A1 I *D gf180mcu_fd_sc_mcu7t5v0__nand2_1
*I *957:Z O *D gf180mcu_fd_sc_mcu7t5v0__buf_1
*CAP
1 *786:A2 0
2 *787:A1 9.9253e-05
3 *928:I 3.26458e-05
4 *789:A1 2.94878e-05
5 *957:Z 0.00192396
6 *182:39 0.000286005
7 *182:30 0.000556477
8 *182:22 0.00229684
9 *787:A1 *766:A2 0
10 *789:A1 *191:22 0
11 *928:I *191:22 0
12 *182:22 *752:A1 0.00178962
13 *182:22 *760:A2 0.000231442
14 *182:22 *914:I 9.5641e-05
15 *182:22 *939:I 1.37497e-05
16 *182:22 *960:I 0.000566114
17 *182:22 *196:10 0.000107581
18 *182:22 *197:10 7.05371e-05
19 *182:22 *203:8 0.000294421
20 *182:22 *216:14 0.0022818
21 *182:22 *216:20 0.000129056
22 *182:30 *788:A1 0.00023968
23 *182:30 *867:RN 0.000282074
24 *182:30 *191:22 0.000169823
25 *182:30 *216:20 1.39839e-05
26 *757:A2 *182:22 9.04462e-05
27 *760:A1 *182:22 7.5133e-05
28 *786:A3 *182:22 0.00076373
29 *788:A2 *928:I 0.000158788
30 *788:A2 *182:30 3.38425e-05
31 *788:A2 *182:39 1.32722e-05
32 *788:B *182:30 9.85004e-05
33 *789:A2 *789:A1 1.61174e-05
34 *791:A2 *182:22 0.000905787
35 *791:A2 *182:30 0
36 *866:D *182:30 3.39443e-05
37 *866:CLK *182:22 2.36813e-05
38 *866:CLK *182:30 0
39 *872:CLK *182:22 0.000578525
40 *880:CLK *182:22 0.000496785
41 *907:I *182:22 0
42 *926:I *182:22 0
43 *957:I *182:22 5.60661e-06
44 *66:32 *787:A1 0.000455757
45 *66:53 *928:I 4.6613e-06
46 *134:29 *182:22 0.000354577
47 *181:8 *182:39 3.22122e-05
*RES
1 *957:Z *182:22 29.07 
2 *182:22 *182:30 12.6 
3 *182:30 *789:A1 4.77 
4 *182:30 *182:39 1.35 
5 *182:39 *928:I 4.95 
6 *182:39 *787:A1 14.67 
7 *182:22 *786:A2 4.5 
*END

*D_NET *183 0.00539007
*CONN
*I *868:RN I *D gf180mcu_fd_sc_mcu7t5v0__dffrnq_1
*I *930:I I *D gf180mcu_fd_sc_mcu7t5v0__buf_2
*I *869:RN I *D gf180mcu_fd_sc_mcu7t5v0__dffrnq_1
*I *913:Z O *D gf180mcu_fd_sc_mcu7t5v0__dlyb_1
*CAP
1 *868:RN 0.000595366
2 *930:I 0.000426781
3 *869:RN 0.00074349
4 *913:Z 4.10561e-05
5 *183:6 0.000615962
6 *780:A1 *868:RN 7.23104e-05
7 *798:A4 *930:I 0
8 *839:A2 *868:RN 0.000570169
9 *844:A2 *868:RN 0.00115633
10 *844:A2 *930:I 9.2834e-05
11 *895:I *868:RN 0.000411984
12 *897:I *868:RN 0.000126948
13 *79:10 *868:RN 3.35761e-05
14 *112:18 *868:RN 0.000133015
15 *132:93 *868:RN 0.00026485
16 *141:10 *868:RN 4.59585e-05
17 *142:10 *869:RN 4.76605e-05
18 *142:10 *183:6 1.17725e-05
*RES
1 *913:Z *183:6 4.77 
2 *183:6 *869:RN 5.49 
3 *183:6 *930:I 16.65 
4 *869:RN *868:RN 26.37 
*END

*D_NET *184 0.00549668
*CONN
*I *853:RN I *D gf180mcu_fd_sc_mcu7t5v0__dffrnq_1
*I *857:RN I *D gf180mcu_fd_sc_mcu7t5v0__dffrnq_1
*I *854:RN I *D gf180mcu_fd_sc_mcu7t5v0__dffrnq_1
*I *929:Z O *D gf180mcu_fd_sc_mcu7t5v0__clkbuf_2
*CAP
1 *853:RN 4.64447e-05
2 *857:RN 0.000473725
3 *854:RN 0.000389744
4 *929:Z 0.000913119
5 *184:10 0.00109523
6 *184:8 0.00119133
7 *184:8 *750:I 6.55375e-05
8 *184:8 *204:12 0.000368843
9 *184:10 *204:12 0.000256882
10 *832:A1 *857:RN 1.23715e-05
11 *832:A2 *857:RN 0.000288855
12 *834:A1 *857:RN 0
13 *838:A2 *184:8 0
14 *842:A1 *184:8 0.000374377
15 *854:D *857:RN 0
16 *854:CLK *184:8 0
17 *940:I *854:RN 0
18 *160:8 *857:RN 2.02272e-05
*RES
1 *929:Z *184:8 17.55 
2 *184:8 *184:10 2.43 
3 *184:10 *854:RN 11.88 
4 *184:10 *857:RN 12.51 
5 *184:8 *853:RN 9.27 
*END

*D_NET *185 0.00634701
*CONN
*I *929:I I *D gf180mcu_fd_sc_mcu7t5v0__clkbuf_2
*I *858:RN I *D gf180mcu_fd_sc_mcu7t5v0__dffrnq_1
*I *855:RN I *D gf180mcu_fd_sc_mcu7t5v0__dffrnq_1
*I *856:RN I *D gf180mcu_fd_sc_mcu7t5v0__dffrnq_1
*I *958:Z O *D gf180mcu_fd_sc_mcu7t5v0__buf_1
*CAP
1 *929:I 0.000161111
2 *858:RN 0
3 *855:RN 0
4 *856:RN 0.000358354
5 *958:Z 0.000435635
6 *185:16 0.000411969
7 *185:12 0.000650361
8 *856:RN *205:12 1.4959e-05
9 *185:12 *859:RN 0.000976801
10 *185:12 *186:12 3.01487e-05
11 phase_state[0] *929:I 0.00015547
12 *841:A1 *185:12 5.06377e-06
13 *842:A1 *856:RN 0.000736801
14 *842:A1 *929:I 2.31089e-05
15 *842:A1 *185:16 0.000211144
16 *842:B *856:RN 0.00017317
17 *842:B *185:12 7.76317e-05
18 *842:B *185:16 0.00022733
19 *159:10 *929:I 0.000222002
20 *162:10 *185:12 5.3289e-05
21 *170:25 *185:12 0
22 *170:32 *185:12 0
23 *174:6 *185:16 1.90777e-06
24 *174:31 *185:12 0.00135099
25 *174:31 *185:16 6.97616e-05
*RES
1 *958:Z *185:12 10.62 
2 *185:12 *185:16 2.7 
3 *185:16 *856:RN 7.11 
4 *185:16 *855:RN 4.5 
5 *185:12 *858:RN 4.5 
6 *856:RN *929:I 10.98 
*END

*D_NET *186 0.00458447
*CONN
*I *860:RN I *D gf180mcu_fd_sc_mcu7t5v0__dffrnq_1
*I *958:I I *D gf180mcu_fd_sc_mcu7t5v0__buf_1
*I *859:RN I *D gf180mcu_fd_sc_mcu7t5v0__dffrnq_1
*I *930:Z O *D gf180mcu_fd_sc_mcu7t5v0__buf_2
*CAP
1 *860:RN 0.000246883
2 *958:I 0
3 *859:RN 0.000183301
4 *930:Z 0.00023422
5 *186:12 0.000209461
6 *186:10 0.000507263
7 *843:A1 *186:10 0.000445488
8 *844:A1 *186:10 3.3015e-05
9 *844:B *186:10 0.000309993
10 *944:I *859:RN 3.01487e-05
11 *944:I *860:RN 0.000548377
12 *944:I *186:12 6.02974e-05
13 *955:I *186:10 0.000518371
14 *162:10 *186:10 9.39061e-05
15 *170:32 *859:RN 4.08956e-05
16 *174:44 *859:RN 5.3289e-05
17 *174:44 *860:RN 6.26074e-05
18 *185:12 *859:RN 0.000976801
19 *185:12 *186:12 3.01487e-05
*RES
1 *930:Z *186:10 16.65 
2 *186:10 *186:12 0.27 
3 *186:12 *859:RN 7.11 
4 *186:12 *958:I 4.5 
5 *186:10 *860:RN 6.93 
*END

*D_NET *187 0.00436996
*CONN
*I *933:I I *D gf180mcu_fd_sc_mcu7t5v0__clkbuf_2
*I *932:I I *D gf180mcu_fd_sc_mcu7t5v0__clkbuf_2
*I *866:RN I *D gf180mcu_fd_sc_mcu7t5v0__dffrnq_1
*I *914:Z O *D gf180mcu_fd_sc_mcu7t5v0__dlyb_1
*CAP
1 *933:I 0
2 *932:I 0.000106294
3 *866:RN 0.00027596
4 *914:Z 0.000810993
5 *187:27 0.000132403
6 *187:16 0.00111306
7 *866:RN *212:43 0.000145056
8 *932:I *212:12 4.46357e-05
9 *187:16 *767:A1 0.000432946
10 *187:16 *211:26 9.22261e-05
11 *187:16 *217:21 1.18477e-05
12 *187:27 *212:43 5.97457e-06
13 *773:A1 *187:16 3.12451e-05
14 *773:A2 *187:16 0.000179912
15 *773:A4 *187:16 0.000101516
16 *875:CLK *187:16 0.000382884
17 *65:14 *866:RN 8.52001e-05
18 *65:14 *187:16 1.58709e-05
19 *66:14 *187:16 0
20 *66:32 *866:RN 2.06277e-05
21 *66:32 *187:16 4.76068e-05
22 *132:8 *187:16 5.98937e-05
23 *132:17 *187:16 0
24 *132:33 *187:16 1.39839e-05
25 *134:12 *187:16 0.000236727
26 *134:21 *187:16 2.30981e-05
*RES
1 *914:Z *187:16 20.88 
2 *187:16 *866:RN 7.02 
3 *187:16 *187:27 0.27 
4 *187:27 *932:I 14.31 
5 *187:27 *933:I 4.5 
*END

*D_NET *188 0.00422185
*CONN
*I *879:RN I *D gf180mcu_fd_sc_mcu7t5v0__dffrnq_1
*I *877:RN I *D gf180mcu_fd_sc_mcu7t5v0__dffrnq_1
*I *876:RN I *D gf180mcu_fd_sc_mcu7t5v0__dffrnq_1
*I *931:Z O *D gf180mcu_fd_sc_mcu7t5v0__clkbuf_2
*CAP
1 *879:RN 5.19339e-05
2 *877:RN 0.0001667
3 *876:RN 0.000319676
4 *931:Z 0.00028747
5 *188:12 0.00112689
6 *188:10 0.00097992
7 *188:12 *878:RN 9.90362e-06
8 *819:A1 *876:RN 5.2575e-05
9 *820:B2 *876:RN 0.000194062
10 *820:B2 *188:12 0.000110827
11 *823:A1 *188:10 0.000171937
12 *826:B1 *879:RN 4.45837e-05
13 *826:B1 *188:12 4.73144e-05
14 *827:A2 *188:10 1.80358e-05
15 *828:A2 *188:12 0.000362403
16 *828:A3 *188:10 0.000112667
17 *85:16 *188:10 0
18 *85:22 *188:10 6.19076e-05
19 *106:8 *188:10 1.91657e-05
20 *153:12 *876:RN 8.38699e-05
21 *154:19 *877:RN 0
*RES
1 *931:Z *188:10 15.93 
2 *188:10 *188:12 4.95 
3 *188:12 *876:RN 7.02 
4 *188:12 *877:RN 5.94 
5 *188:10 *879:RN 4.95 
*END

*D_NET *189 0.00686578
*CONN
*I *870:RN I *D gf180mcu_fd_sc_mcu7t5v0__dffrnq_1
*I *913:I I *D gf180mcu_fd_sc_mcu7t5v0__dlyb_1
*I *871:RN I *D gf180mcu_fd_sc_mcu7t5v0__dffrnq_1
*I *932:Z O *D gf180mcu_fd_sc_mcu7t5v0__clkbuf_2
*CAP
1 *870:RN 0.000154205
2 *913:I 0.000187168
3 *871:RN 0
4 *932:Z 0.000787182
5 *189:19 0.000539185
6 *189:10 0.000984994
7 *773:A3 *189:10 7.86261e-05
8 *798:A3 *189:10 0
9 *805:A2 *913:I 0.000286386
10 *806:A1 *913:I 0.000976801
11 *806:A2 *913:I 0.000426091
12 *829:B *189:10 0
13 *846:A2 *870:RN 4.03755e-05
14 *846:A2 *189:19 1.3026e-05
15 *861:CLK *870:RN 0.000720573
16 *861:CLK *913:I 0.000123905
17 *97:6 *913:I 0.000578516
18 *98:12 *870:RN 0.000230432
19 *113:26 *189:10 0.000137825
20 *126:28 *189:10 0.000362773
21 *136:26 *913:I 2.93938e-05
22 *136:33 *913:I 0.000208323
23 *152:37 *189:10 0
*RES
1 *932:Z *189:10 15.12 
2 *189:10 *871:RN 9 
3 *189:10 *189:19 1.17 
4 *189:19 *913:I 13.95 
5 *189:19 *870:RN 11.52 
*END

*D_NET *190 0.00309679
*CONN
*I *917:I I *D gf180mcu_fd_sc_mcu7t5v0__dlyb_1
*I *921:Z O *D gf180mcu_fd_sc_mcu7t5v0__buf_1
*CAP
1 *917:I 0.00106614
2 *921:Z 0.00106614
3 *753:A2 *917:I 0.000425819
4 *891:D *917:I 0.000116655
5 *138:43 *917:I 8.17043e-05
6 *176:14 *917:I 0.00032797
7 *177:18 *917:I 1.23523e-05
*RES
1 *921:Z *917:I 28.08 
*END

*D_NET *191 0.00763265
*CONN
*I *867:RN I *D gf180mcu_fd_sc_mcu7t5v0__dffrnq_1
*I *931:I I *D gf180mcu_fd_sc_mcu7t5v0__clkbuf_2
*I *878:RN I *D gf180mcu_fd_sc_mcu7t5v0__dffrnq_1
*I *933:Z O *D gf180mcu_fd_sc_mcu7t5v0__clkbuf_2
*CAP
1 *867:RN 0.000439876
2 *931:I 0
3 *878:RN 0.000314475
4 *933:Z 0.00027974
5 *191:22 0.000923254
6 *191:12 0.0013284
7 *867:RN *766:A1 0
8 *867:RN *216:20 0.000176508
9 *867:RN *217:8 2.65444e-06
10 *191:12 *766:A2 0.000600554
11 *773:A4 *191:12 3.42663e-05
12 *788:A2 *867:RN 2.14747e-05
13 *788:B *191:22 2.81341e-05
14 *789:A1 *191:22 0
15 *823:A1 *878:RN 3.55118e-05
16 *823:A1 *191:22 0.00037349
17 *823:A2 *878:RN 0.000123915
18 *823:A2 *191:22 3.22348e-05
19 *825:A1 *878:RN 6.1883e-05
20 *825:A4 *878:RN 5.78854e-06
21 *826:B1 *878:RN 3.01487e-05
22 *826:B1 *191:22 0
23 *827:A2 *878:RN 0.000382884
24 *828:A2 *878:RN 7.12056e-05
25 *828:A3 *878:RN 0.000364888
26 *866:D *191:12 0.000247389
27 *866:D *191:22 0.000468821
28 *928:I *191:22 0
29 *65:8 *191:12 0.000215697
30 *66:53 *191:22 0
31 *85:10 *191:22 0.000365454
32 *85:16 *191:22 2.37143e-05
33 *85:22 *191:22 1.00177e-05
34 *156:10 *878:RN 0.000192609
35 *181:8 *191:22 1.58709e-05
36 *182:30 *867:RN 0.000282074
37 *182:30 *191:22 0.000169823
38 *188:12 *878:RN 9.90362e-06
*RES
1 *933:Z *191:12 12.69 
2 *191:12 *191:22 10.26 
3 *191:22 *878:RN 16.83 
4 *191:22 *931:I 4.5 
5 *191:12 *867:RN 12.69 
*END

*D_NET *192 0.00375407
*CONN
*I *935:I I *D gf180mcu_fd_sc_mcu7t5v0__buf_2
*I *936:I I *D gf180mcu_fd_sc_mcu7t5v0__buf_2
*I *893:RN I *D gf180mcu_fd_sc_mcu7t5v0__dffrnq_1
*I *884:RN I *D gf180mcu_fd_sc_mcu7t5v0__dffrnq_1
*I *915:Z O *D gf180mcu_fd_sc_mcu7t5v0__dlyb_1
*CAP
1 *935:I 8.26149e-05
2 *936:I 0.00023745
3 *893:RN 0.000156712
4 *884:RN 0.0001647
5 *915:Z 2.24594e-05
6 *192:34 0.000507716
7 *192:12 0.000545791
8 *192:6 0.00043449
9 *893:RN *765:A2 0
10 *893:RN *201:21 0.000712528
11 *935:I *195:10 1.47998e-05
12 *936:I *762:A1 0
13 *936:I *765:A2 0
14 *936:I *195:10 5.26534e-05
15 *936:I *201:53 0
16 *192:6 *765:A2 1.56862e-05
17 *192:6 *201:21 1.19491e-05
18 *192:12 *765:A2 5.61832e-05
19 *192:12 *201:21 4.57989e-05
20 *192:12 *203:42 0
21 *753:A2 *884:RN 0
22 *753:A2 *935:I 0.000169927
23 *753:A2 *192:12 0
24 *753:A2 *192:34 0.000436017
25 *764:A2 *884:RN 8.66004e-05
26 *884:CLK *935:I 0
*RES
1 *915:Z *192:6 4.77 
2 *192:6 *192:12 6.3 
3 *192:12 *884:RN 10.35 
4 *192:12 *893:RN 10.89 
5 *192:6 *192:34 6.93 
6 *192:34 *936:I 10.35 
7 *192:34 *935:I 9.99 
*END

*D_NET *193 0.00411065
*CONN
*I *863:RN I *D gf180mcu_fd_sc_mcu7t5v0__dffrnq_1
*I *864:RN I *D gf180mcu_fd_sc_mcu7t5v0__dffrnq_1
*I *865:RN I *D gf180mcu_fd_sc_mcu7t5v0__dffrnq_1
*I *934:Z O *D gf180mcu_fd_sc_mcu7t5v0__clkbuf_2
*CAP
1 *863:RN 0.000187497
2 *864:RN 0.000496591
3 *865:RN 0.000685934
4 *934:Z 0.000376841
5 *863:RN *862:RN 2.06277e-05
6 *865:RN *882:RN 0
7 *761:A2 *864:RN 5.8566e-05
8 *761:A2 *865:RN 0.000807881
9 *762:A2 *865:RN 0.000302466
10 *763:A2 *865:RN 0.000263804
11 *781:A1 *863:RN 0.000231442
12 *781:A1 *864:RN 0.000248583
13 *782:B *863:RN 0.000151427
14 *784:A1 *864:RN 0
15 *784:A1 *865:RN 0
16 *784:A2 *863:RN 0
17 *784:A2 *864:RN 0
18 *948:I *863:RN 0.000256675
19 *949:I *864:RN 2.23145e-05
*RES
1 *934:Z *865:RN 13.32 
2 *865:RN *864:RN 11.43 
3 *864:RN *863:RN 11.43 
*END

*D_NET *194 0.00567495
*CONN
*I *874:RN I *D gf180mcu_fd_sc_mcu7t5v0__dffrnq_1
*I *875:RN I *D gf180mcu_fd_sc_mcu7t5v0__dffrnq_1
*I *885:RN I *D gf180mcu_fd_sc_mcu7t5v0__dffrnq_1
*I *935:Z O *D gf180mcu_fd_sc_mcu7t5v0__buf_2
*CAP
1 *874:RN 0
2 *875:RN 0.000285533
3 *885:RN 0.000818042
4 *935:Z 0.000654532
5 *194:26 0.000449043
6 *885:RN *763:A1 1.51153e-05
7 *761:A1 *885:RN 0.000283675
8 *763:A2 *885:RN 0.000164693
9 *783:A1 *875:RN 6.57682e-05
10 *783:A1 *885:RN 0
11 *783:A1 *194:26 9.34115e-05
12 *783:A2 *875:RN 0.000256675
13 *783:A2 *194:26 0.000261398
14 *785:A2 *885:RN 0.000145612
15 *815:A2 *885:RN 5.08425e-05
16 *830:B *875:RN 1.47139e-05
17 *881:D *885:RN 0.000567809
18 *882:D *885:RN 4.54383e-05
19 *883:D *885:RN 0
20 *883:CLK *885:RN 2.6414e-05
21 *884:D *885:RN 0.000569413
22 *77:8 *875:RN 1.17652e-05
23 *140:6 *885:RN 0.000294421
24 *140:39 *885:RN 0.000128649
25 *140:50 *885:RN 0.00047198
*RES
1 *935:Z *885:RN 26.46 
2 *885:RN *194:26 6.48 
3 *194:26 *875:RN 7.11 
4 *194:26 *874:RN 4.5 
*END

*D_NET *195 0.0033215
*CONN
*I *934:I I *D gf180mcu_fd_sc_mcu7t5v0__clkbuf_2
*I *882:RN I *D gf180mcu_fd_sc_mcu7t5v0__dffrnq_1
*I *881:RN I *D gf180mcu_fd_sc_mcu7t5v0__dffrnq_1
*I *936:Z O *D gf180mcu_fd_sc_mcu7t5v0__buf_2
*CAP
1 *934:I 0.00015149
2 *882:RN 0.0002926
3 *881:RN 0
4 *936:Z 0.000871113
5 *195:19 0.000591839
6 *195:10 0.00101886
7 *882:RN *953:I 1.0415e-05
8 *934:I *883:RN 6.84426e-06
9 *934:I *959:I 0
10 *195:10 *915:I 0
11 *195:10 *959:I 0
12 *195:19 *959:I 0
13 *753:A2 *195:10 0
14 *762:A2 *882:RN 0
15 *762:A2 *934:I 0
16 *762:A2 *195:10 0
17 *762:A2 *195:19 0
18 *865:RN *882:RN 0
19 *881:D *195:10 0.000100154
20 *884:CLK *195:10 5.13763e-05
21 *935:I *195:10 1.47998e-05
22 *936:I *195:10 5.26534e-05
23 *140:50 *195:10 0.000159352
*RES
1 *936:Z *195:10 15.66 
2 *195:10 *881:RN 9 
3 *195:10 *195:19 1.17 
4 *195:19 *882:RN 10.89 
5 *195:19 *934:I 9.99 
*END

*D_NET *196 0.0036739
*CONN
*I *939:I I *D gf180mcu_fd_sc_mcu7t5v0__clkbuf_1
*I *880:RN I *D gf180mcu_fd_sc_mcu7t5v0__dffrnq_1
*I *892:RN I *D gf180mcu_fd_sc_mcu7t5v0__dffrnq_1
*I *916:Z O *D gf180mcu_fd_sc_mcu7t5v0__dlyb_1
*CAP
1 *939:I 0.000204334
2 *880:RN 0.000174675
3 *892:RN 8.97944e-05
4 *916:Z 0
5 *196:10 0.000661278
6 *196:4 0.000601143
7 *880:RN *756:A2 0
8 *939:I *914:I 0.000304602
9 *939:I *203:8 3.57113e-05
10 *753:A2 *880:RN 0.000187771
11 *753:A2 *196:10 2.55518e-05
12 *764:A2 *880:RN 0
13 *880:D *939:I 0.000115386
14 *880:D *196:10 0.00010148
15 *880:CLK *196:10 0.000151427
16 *176:38 *892:RN 8.69474e-05
17 *176:38 *196:10 0.000812469
18 *182:22 *939:I 1.37497e-05
19 *182:22 *196:10 0.000107581
*RES
1 *916:Z *196:4 4.5 
2 *196:4 *196:10 9 
3 *196:10 *892:RN 9.63 
4 *196:10 *880:RN 11.07 
5 *196:4 *939:I 6.66 
*END

*D_NET *197 0.005388
*CONN
*I *873:RN I *D gf180mcu_fd_sc_mcu7t5v0__dffrnq_1
*I *872:RN I *D gf180mcu_fd_sc_mcu7t5v0__dffrnq_1
*I *889:RN I *D gf180mcu_fd_sc_mcu7t5v0__dffrnq_1
*I *937:Z O *D gf180mcu_fd_sc_mcu7t5v0__clkbuf_2
*CAP
1 *873:RN 0
2 *872:RN 0.000172632
3 *889:RN 0
4 *937:Z 0.00078307
5 *197:23 0.000667013
6 *197:10 0.00127745
7 *197:10 *937:I 5.97457e-06
8 *197:10 *216:10 0.000247389
9 *197:23 *216:10 0.000489638
10 *760:A1 *197:10 7.5133e-05
11 *774:A2 *872:RN 0.000215887
12 *810:A2 *197:23 8.31054e-06
13 *812:A1 *197:23 3.5093e-05
14 *812:A2 *872:RN 0
15 *813:A2 *197:23 0.000656436
16 *873:CLK *197:10 0
17 *875:CLK *872:RN 0.000389133
18 *875:CLK *197:23 0.000273674
19 *889:D *197:10 0
20 *145:17 *872:RN 0
21 *146:8 *872:RN 1.79733e-05
22 *146:8 *197:23 2.65444e-06
23 *182:22 *197:10 7.05371e-05
*RES
1 *937:Z *197:10 14.58 
2 *197:10 *889:RN 9 
3 *197:10 *197:23 9.72 
4 *197:23 *872:RN 6.93 
5 *197:23 *873:RN 4.5 
*END

*D_NET *198 0.00261688
*CONN
*I *937:I I *D gf180mcu_fd_sc_mcu7t5v0__clkbuf_2
*I *886:RN I *D gf180mcu_fd_sc_mcu7t5v0__dffrnq_1
*I *888:RN I *D gf180mcu_fd_sc_mcu7t5v0__dffrnq_1
*I *887:RN I *D gf180mcu_fd_sc_mcu7t5v0__dffrnq_1
*I *938:Z O *D gf180mcu_fd_sc_mcu7t5v0__clkbuf_2
*CAP
1 *937:I 0.000247493
2 *886:RN 0.000195773
3 *888:RN 0.000465359
4 *887:RN 0.000202644
5 *938:Z 0
6 *198:6 0.0005506
7 *198:4 0.000325862
8 *886:RN *890:RN 4.6613e-06
9 *886:RN *891:RN 3.01487e-05
10 *886:RN *938:I 5.32818e-05
11 *887:RN *759:A2 3.55118e-05
12 *888:RN *758:A2 0
13 *937:I *760:A2 0
14 *198:6 *938:I 1.79237e-05
15 *177:47 *886:RN 2.08566e-05
16 *177:47 *198:6 4.34467e-06
17 *177:66 *887:RN 0.000321144
18 *177:66 *198:6 0.0001353
19 *197:10 *937:I 5.97457e-06
*RES
1 *938:Z *198:4 4.5 
2 *198:4 *198:6 1.17 
3 *198:6 *887:RN 6.66 
4 *198:6 *888:RN 15.21 
5 *198:4 *886:RN 5.85 
6 *888:RN *937:I 10.71 
*END

*D_NET *199 0.00337887
*CONN
*I *938:I I *D gf180mcu_fd_sc_mcu7t5v0__clkbuf_2
*I *891:RN I *D gf180mcu_fd_sc_mcu7t5v0__dffrnq_1
*I *890:RN I *D gf180mcu_fd_sc_mcu7t5v0__dffrnq_1
*I *939:Z O *D gf180mcu_fd_sc_mcu7t5v0__clkbuf_1
*CAP
1 *938:I 0.000203967
2 *891:RN 0.000402336
3 *890:RN 0.000149699
4 *939:Z 0.000209259
5 *199:10 0.000621296
6 *199:8 0.000482485
7 *890:RN *754:A2 0
8 *891:RN *755:A2 2.65444e-06
9 *938:I *758:A2 8.69576e-05
10 *199:8 *916:I 9.50177e-05
11 *199:8 *203:19 4.10656e-05
12 *199:10 *754:A2 0
13 *886:RN *890:RN 4.6613e-06
14 *886:RN *891:RN 3.01487e-05
15 *886:RN *938:I 5.32818e-05
16 *907:I *938:I 0
17 *3:12 *890:RN 0.000143583
18 *3:12 *199:8 0.000627045
19 *3:12 *199:10 0.000129087
20 *138:32 *891:RN 0
21 *177:47 *890:RN 7.84068e-05
22 *177:47 *891:RN 0
23 *198:6 *938:I 1.79237e-05
*RES
1 *939:Z *199:8 12.51 
2 *199:8 *199:10 0.81 
3 *199:10 *890:RN 10.62 
4 *199:10 *891:RN 11.79 
5 *199:8 *938:I 10.53 
*END

*D_NET *200 0.00311084
*CONN
*I *960:I I *D gf180mcu_fd_sc_mcu7t5v0__buf_1
*I *917:Z O *D gf180mcu_fd_sc_mcu7t5v0__dlyb_1
*CAP
1 *960:I 0.000420838
2 *917:Z 0.000420838
3 *960:I *755:A2 0.000382884
4 *753:A2 *960:I 0.000965934
5 *892:D *960:I 9.07783e-05
6 *138:32 *960:I 0
7 *176:14 *960:I 6.58629e-05
8 *176:38 *960:I 0.000197589
9 *182:22 *960:I 0.000566114
*RES
1 *917:Z *960:I 24.12 
*END

*D_NET *201 0.0144078
*CONN
*I *765:A1 I *D gf180mcu_fd_sc_mcu7t5v0__and2_1
*I *762:A1 I *D gf180mcu_fd_sc_mcu7t5v0__and2_1
*I *763:A1 I *D gf180mcu_fd_sc_mcu7t5v0__and2_1
*I *764:A1 I *D gf180mcu_fd_sc_mcu7t5v0__and2_1
*I *912:I I *D gf180mcu_fd_sc_mcu7t5v0__dlyb_1
*I *922:Z O *D gf180mcu_fd_sc_mcu7t5v0__buf_1
*CAP
1 *765:A1 0
2 *762:A1 0.000724452
3 *763:A1 0.000686612
4 *764:A1 6.76559e-05
5 *912:I 0
6 *922:Z 0.000235999
7 *201:53 0.000924067
8 *201:21 0.00124608
9 *201:17 0.0017717
10 *201:8 0.00131627
11 *763:A1 *959:I 2.13441e-06
12 *764:A1 *211:26 2.38064e-05
13 *201:21 *765:A2 0
14 *201:21 *954:I 9.07783e-05
15 *201:21 *211:26 2.89427e-06
16 *753:A2 *762:A1 0.000152267
17 *753:A2 *201:17 0.000215668
18 *753:A2 *201:53 4.53707e-05
19 *757:A2 *201:8 0.00105679
20 *757:A2 *201:17 0.00163777
21 *762:A2 *762:A1 0.000182206
22 *763:A2 *763:A1 0.000181311
23 *764:A2 *764:A1 0.000169524
24 *764:A2 *201:21 0.000646468
25 *785:A2 *763:A1 0
26 *815:A1 *764:A1 0
27 *815:A2 *763:A1 0
28 *881:D *762:A1 0.000955665
29 *882:D *763:A1 0.000436469
30 *885:RN *763:A1 1.51153e-05
31 *893:RN *201:21 0.000712528
32 *911:I *201:8 0.000129096
33 *936:I *762:A1 0
34 *936:I *201:53 0
35 *132:123 *763:A1 0.000204177
36 *140:10 *763:A1 0.00025584
37 *140:16 *763:A1 0.000216973
38 *177:18 *201:8 4.43811e-05
39 *192:6 *201:21 1.19491e-05
40 *192:12 *201:21 4.57989e-05
*RES
1 *922:Z *201:8 12.69 
2 *201:8 *912:I 9 
3 *201:8 *201:17 10.71 
4 *201:17 *201:21 9.45 
5 *201:21 *764:A1 5.22 
6 *201:21 *763:A1 20.88 
7 *201:17 *201:53 6.3 
8 *201:53 *762:A1 20.52 
9 *201:53 *765:A1 4.5 
*END

*D_NET *202 0.00833775
*CONN
*I *861:RN I *D gf180mcu_fd_sc_mcu7t5v0__dffrnq_1
*I *883:RN I *D gf180mcu_fd_sc_mcu7t5v0__dffrnq_1
*I *862:RN I *D gf180mcu_fd_sc_mcu7t5v0__dffrnq_1
*I *959:Z O *D gf180mcu_fd_sc_mcu7t5v0__clkbuf_2
*CAP
1 *861:RN 0.000696316
2 *883:RN 0.000665906
3 *862:RN 0.00183687
4 *959:Z 0
5 *202:4 0.00180646
6 *883:RN *953:I 5.36871e-05
7 votes_in_phase[3] *861:RN 1.4106e-05
8 votes_out_phase[0] *862:RN 4.15563e-05
9 votes_out_phase[1] *862:RN 0.000233578
10 votes_out_phase[2] *862:RN 0.000106536
11 votes_out_phase[3] *883:RN 0.000187628
12 *762:A2 *883:RN 9.47819e-05
13 *781:A1 *862:RN 0
14 *851:A2 *861:RN 0
15 *863:RN *862:RN 2.06277e-05
16 *918:I *883:RN 3.01487e-05
17 *934:I *883:RN 6.84426e-06
18 *947:I *861:RN 3.01487e-05
19 *947:I *862:RN 0.000649549
20 *948:I *862:RN 0.000123639
21 *949:I *862:RN 0.000413794
22 *950:I *862:RN 0.00084548
23 *950:I *883:RN 0.000231975
24 *164:10 *861:RN 0
25 *174:55 *861:RN 0.000248121
*RES
1 *959:Z *202:4 4.5 
2 *202:4 *862:RN 15.75 
3 *202:4 *883:RN 19.08 
4 *862:RN *861:RN 13.95 
*END

*D_NET *203 0.0149908
*CONN
*I *959:I I *D gf180mcu_fd_sc_mcu7t5v0__clkbuf_2
*I *915:I I *D gf180mcu_fd_sc_mcu7t5v0__dlyb_1
*I *914:I I *D gf180mcu_fd_sc_mcu7t5v0__dlyb_1
*I *916:I I *D gf180mcu_fd_sc_mcu7t5v0__dlyb_1
*I *960:Z O *D gf180mcu_fd_sc_mcu7t5v0__buf_1
*CAP
1 *959:I 0.000732864
2 *915:I 0.000306014
3 *914:I 0.00131397
4 *916:I 0.000151876
5 *960:Z 6.72608e-05
6 *203:42 0.00182342
7 *203:19 0.00223679
8 *203:8 0.000357413
9 *914:I *752:A1 0.000226642
10 *914:I *216:14 0.000218998
11 *915:I *765:A2 0.000143309
12 *203:42 *756:A2 2.73e-05
13 *763:A1 *959:I 2.13441e-06
14 *763:A2 *959:I 0.00100201
15 *764:A2 *203:42 7.43406e-05
16 *810:A1 *914:I 3.92155e-05
17 *810:A2 *914:I 9.05146e-05
18 *872:D *914:I 0.000148234
19 *873:D *914:I 0.000151427
20 *880:D *914:I 0.00111189
21 *880:CLK *916:I 0
22 *884:D *915:I 8.35152e-05
23 *884:CLK *959:I 0
24 *889:D *914:I 0.000164277
25 *934:I *959:I 0
26 *939:I *914:I 0.000304602
27 *939:I *203:8 3.57113e-05
28 *3:12 *203:19 0
29 *3:12 *203:42 0
30 *3:22 *914:I 0.000812727
31 *140:10 *959:I 0.000992096
32 *140:10 *203:42 0.00032797
33 *140:16 *203:42 0.00151818
34 *140:50 *959:I 0
35 *182:22 *914:I 9.5641e-05
36 *182:22 *203:8 0.000294421
37 *192:12 *203:42 0
38 *195:10 *915:I 0
39 *195:10 *959:I 0
40 *195:19 *959:I 0
41 *199:8 *916:I 9.50177e-05
42 *199:8 *203:19 4.10656e-05
*RES
1 *960:Z *203:8 9.81 
2 *203:8 *916:I 10.35 
3 *203:8 *203:19 1.17 
4 *203:19 *914:I 24.03 
5 *203:19 *203:42 8.01 
6 *203:42 *915:I 11.61 
7 *203:42 *959:I 17.73 
*END

*D_NET *204 0.00267948
*CONN
*I *750:I I *D gf180mcu_fd_sc_mcu7t5v0__clkinv_1
*I *951:I I *D gf180mcu_fd_sc_mcu7t5v0__buf_2
*I *853:Q O *D gf180mcu_fd_sc_mcu7t5v0__dffrnq_1
*CAP
1 *750:I 0.000233032
2 *951:I 2.65826e-05
3 *853:Q 0.000305189
4 *204:12 0.000564803
5 *838:A2 *750:I 0.000473735
6 *838:A3 *951:I 9.84908e-05
7 *838:A3 *204:12 0.000286386
8 *184:8 *750:I 6.55375e-05
9 *184:8 *204:12 0.000368843
10 *184:10 *204:12 0.000256882
*RES
1 *853:Q *204:12 17.64 
2 *204:12 *951:I 4.77 
3 *204:12 *750:I 15.75 
*END

*D_NET *205 0.00347319
*CONN
*I *952:I I *D gf180mcu_fd_sc_mcu7t5v0__buf_2
*I *836:A1 I *D gf180mcu_fd_sc_mcu7t5v0__nor2_1
*I *855:Q O *D gf180mcu_fd_sc_mcu7t5v0__dffrnq_1
*CAP
1 *952:I 0
2 *836:A1 0.000203429
3 *855:Q 0.00110712
4 *205:12 0.00131055
5 *837:A2 *205:12 0
6 *837:A3 *836:A1 4.83522e-05
7 *837:A3 *205:12 0
8 *838:A2 *836:A1 0.000280683
9 *842:A1 *205:12 0
10 *842:B *205:12 9.84776e-05
11 *856:RN *205:12 1.4959e-05
12 *942:I *205:12 0.000135043
13 *170:25 *205:12 0.00027458
*RES
1 *855:Q *205:12 20.7 
2 *205:12 *836:A1 6.21 
3 *205:12 *952:I 4.5 
*END

*D_NET *206 0.000843851
*CONN
*I *953:I I *D gf180mcu_fd_sc_mcu7t5v0__buf_2
*I *881:Q O *D gf180mcu_fd_sc_mcu7t5v0__dffrnq_1
*CAP
1 *953:I 0.000360134
2 *881:Q 0.000360134
3 *762:A2 *953:I 5.94809e-05
4 *882:RN *953:I 1.0415e-05
5 *883:RN *953:I 5.36871e-05
*RES
1 *881:Q *953:I 11.52 
*END

*D_NET *207 0.000471553
*CONN
*I *954:I I *D gf180mcu_fd_sc_mcu7t5v0__buf_2
*I *880:Q O *D gf180mcu_fd_sc_mcu7t5v0__dffrnq_1
*CAP
1 *954:I 0.000190388
2 *880:Q 0.000190388
3 *201:21 *954:I 9.07783e-05
*RES
1 *880:Q *954:I 10.44 
*END

*D_NET *208 0.00205417
*CONN
*I *754:A2 I *D gf180mcu_fd_sc_mcu7t5v0__and2_1
*I *890:Q O *D gf180mcu_fd_sc_mcu7t5v0__dffrnq_1
*CAP
1 *754:A2 0.000810565
2 *890:Q 0.000810565
3 *890:RN *754:A2 0
4 *890:CLK *754:A2 9.48553e-05
5 *891:D *754:A2 5.22248e-06
6 *3:12 *754:A2 0
7 *138:43 *754:A2 0.000332963
8 *199:10 *754:A2 0
*RES
1 *890:Q *754:A2 25.02 
*END

*D_NET *209 0.00119826
*CONN
*I *755:A2 I *D gf180mcu_fd_sc_mcu7t5v0__and2_1
*I *891:Q O *D gf180mcu_fd_sc_mcu7t5v0__dffrnq_1
*CAP
1 *755:A2 0.000192274
2 *891:Q 0.000192274
3 *891:RN *755:A2 2.65444e-06
4 *892:D *755:A2 0
5 *960:I *755:A2 0.000382884
6 *176:14 *755:A2 0.00023968
7 *176:18 *755:A2 1.39839e-05
8 *176:38 *755:A2 0.000174506
*RES
1 *891:Q *755:A2 19.98 
*END

*D_NET *210 0.00117635
*CONN
*I *756:A2 I *D gf180mcu_fd_sc_mcu7t5v0__and2_1
*I *892:Q O *D gf180mcu_fd_sc_mcu7t5v0__dffrnq_1
*CAP
1 *756:A2 0.000321785
2 *892:Q 0.000321785
3 *880:RN *756:A2 0
4 *893:D *756:A2 0.000148576
5 *140:16 *756:A2 0
6 *176:38 *756:A2 0.000356899
7 *203:42 *756:A2 2.73e-05
*RES
1 *892:Q *756:A2 21.24 
*END

*D_NET *211 0.0113578
*CONN
*I *765:A2 I *D gf180mcu_fd_sc_mcu7t5v0__and2_1
*I *767:A2 I *D gf180mcu_fd_sc_mcu7t5v0__nand2_2
*I *766:A2 I *D gf180mcu_fd_sc_mcu7t5v0__and2_1
*I *893:Q O *D gf180mcu_fd_sc_mcu7t5v0__dffrnq_1
*CAP
1 *765:A2 0.00062349
2 *767:A2 0
3 *766:A2 0.000924451
4 *893:Q 0
5 *211:26 0.00278886
6 *211:4 0.0024879
7 *211:26 *775:A2 2.31089e-05
8 *764:A1 *211:26 2.38064e-05
9 *774:A2 *211:26 0
10 *775:A4 *211:26 0.000208323
11 *776:A1 *211:26 2.36813e-05
12 *776:A2 *211:26 0.000106536
13 *783:A2 *211:26 0.000305705
14 *787:A1 *766:A2 0
15 *809:A2 *211:26 0.000984845
16 *814:A1 *211:26 0.000507502
17 *815:A1 *211:26 0.000217889
18 *830:A1 *211:26 7.58346e-05
19 *830:C *211:26 0
20 *850:A2 *211:26 7.84068e-05
21 *874:D *211:26 8.33579e-05
22 *875:D *211:26 0.000309004
23 *885:D *211:26 0
24 *893:RN *765:A2 0
25 *901:I *211:26 1.47217e-05
26 *915:I *765:A2 0.000143309
27 *936:I *765:A2 0
28 *66:12 *211:26 0.000185687
29 *66:14 *211:26 4.6613e-06
30 *74:18 *211:26 0
31 *113:26 *211:26 0
32 *132:123 *211:26 0
33 *132:155 *211:26 4.45747e-05
34 *132:160 *211:26 7.07109e-05
35 *175:27 *766:A2 0.000163628
36 *175:63 *211:26 0.000190213
37 *187:16 *211:26 9.22261e-05
38 *191:12 *766:A2 0.000600554
39 *192:6 *765:A2 1.56862e-05
40 *192:12 *765:A2 5.61832e-05
41 *201:21 *765:A2 0
42 *201:21 *211:26 2.89427e-06
*RES
1 *893:Q *211:4 4.5 
2 *211:4 *211:26 22.86 
3 *211:26 *766:A2 25.02 
4 *211:26 *767:A2 9 
5 *211:4 *765:A2 8.91 
*END

*D_NET *212 0.00875724
*CONN
*I *793:A2 I *D gf180mcu_fd_sc_mcu7t5v0__nand4_1
*I *787:A2 I *D gf180mcu_fd_sc_mcu7t5v0__nand2_1
*I *792:A2 I *D gf180mcu_fd_sc_mcu7t5v0__nand3_1
*I *775:A2 I *D gf180mcu_fd_sc_mcu7t5v0__nor4_4
*I *772:A2 I *D gf180mcu_fd_sc_mcu7t5v0__nor3_2
*I *747:I I *D gf180mcu_fd_sc_mcu7t5v0__clkinv_1
*I *866:Q O *D gf180mcu_fd_sc_mcu7t5v0__dffrnq_1
*CAP
1 *793:A2 0.000281047
2 *787:A2 0.000222763
3 *792:A2 0.000135716
4 *775:A2 0.000361848
5 *772:A2 0
6 *747:I 0
7 *866:Q 0
8 *212:54 0.00050381
9 *212:43 0.000401588
10 *212:19 0.000539044
11 *212:12 0.000620792
12 *212:4 0.000709468
13 *773:A3 *212:19 0.000947323
14 *777:A2 *775:A2 1.0415e-05
15 *797:A1 *787:A2 6.58085e-05
16 *797:A1 *792:A2 4.45401e-05
17 *797:A1 *793:A2 0.000130556
18 *797:A1 *212:43 6.05118e-05
19 *797:A2 *787:A2 7.15592e-05
20 *797:A2 *793:A2 9.25157e-05
21 *798:A3 *212:19 6.5543e-05
22 *798:A4 *793:A2 2.19725e-05
23 *798:A4 *212:12 0
24 *800:A2 *793:A2 2.2902e-05
25 *805:A2 *775:A2 0.000372597
26 *807:A1 *775:A2 2.55518e-05
27 *829:B *212:12 0.000104523
28 *840:A2 *787:A2 4.80438e-05
29 *866:RN *212:43 0.000145056
30 *870:D *775:A2 0.000478207
31 *932:I *212:12 4.46357e-05
32 *65:14 *787:A2 6.27691e-05
33 *65:14 *792:A2 0
34 *65:14 *212:43 0
35 *65:20 *787:A2 5.28794e-05
36 *65:40 *787:A2 6.13169e-05
37 *66:14 *775:A2 1.68677e-06
38 *66:32 *787:A2 7.34245e-05
39 *66:32 *212:43 9.22024e-05
40 *94:12 *792:A2 0.000112623
41 *94:12 *212:43 6.68757e-05
42 *112:18 *793:A2 0.000278756
43 *113:26 *775:A2 0.000240831
44 *113:26 *212:12 0
45 *113:26 *212:19 0.000160848
46 *113:26 *212:43 7.65946e-06
47 *126:20 *775:A2 0.000580898
48 *126:28 *793:A2 3.98788e-05
49 *126:28 *212:12 1.19491e-05
50 *126:28 *212:19 5.97457e-06
51 *132:78 *212:12 2.75146e-05
52 *132:78 *212:19 2.55905e-05
53 *141:10 *793:A2 3.01487e-05
54 *141:19 *793:A2 2.08301e-05
55 *141:36 *793:A2 4.22217e-05
56 *142:16 *212:12 0.000193622
57 *152:22 *775:A2 9.3226e-06
58 *187:27 *212:43 5.97457e-06
59 *211:26 *775:A2 2.31089e-05
*RES
1 *866:Q *212:4 4.5 
2 *212:4 *212:12 12.24 
3 *212:12 *747:I 4.5 
4 *212:12 *212:19 2.79 
5 *212:19 *772:A2 4.5 
6 *212:19 *775:A2 18.81 
7 *212:4 *212:43 2.52 
8 *212:43 *792:A2 5.58 
9 *212:43 *212:54 4.5 
10 *212:54 *787:A2 11.52 
11 *212:54 *793:A2 11.7 
*END

*D_NET *213 0.00145326
*CONN
*I *758:A2 I *D gf180mcu_fd_sc_mcu7t5v0__and2_1
*I *886:Q O *D gf180mcu_fd_sc_mcu7t5v0__dffrnq_1
*CAP
1 *758:A2 0.000359661
2 *886:Q 0.000359661
3 *758:A1 *758:A2 0.000169908
4 *888:RN *758:A2 0
5 *907:I *758:A2 2.37695e-05
6 *938:I *758:A2 8.69576e-05
7 *3:12 *758:A2 0.000315
8 *137:14 *758:A2 0
9 *177:66 *758:A2 0.000138305
*RES
1 *886:Q *758:A2 22.32 
*END

*D_NET *214 0.00150965
*CONN
*I *759:A2 I *D gf180mcu_fd_sc_mcu7t5v0__and2_1
*I *887:Q O *D gf180mcu_fd_sc_mcu7t5v0__dffrnq_1
*CAP
1 *759:A2 0.000376669
2 *887:Q 0.000376669
3 *759:A1 *759:A2 0.000585119
4 *887:RN *759:A2 3.55118e-05
5 *888:D *759:A2 5.50498e-05
6 *137:10 *759:A2 2.241e-05
7 *177:66 *759:A2 5.82191e-05
*RES
1 *887:Q *759:A2 12.96 
*END

*D_NET *215 0.000610701
*CONN
*I *760:A2 I *D gf180mcu_fd_sc_mcu7t5v0__and2_1
*I *888:Q O *D gf180mcu_fd_sc_mcu7t5v0__dffrnq_1
*CAP
1 *760:A2 0.000189629
2 *888:Q 0.000189629
3 *937:I *760:A2 0
4 *182:22 *760:A2 0.000231442
*RES
1 *888:Q *760:A2 10.62 
*END

*D_NET *216 0.0102996
*CONN
*I *752:A1 I *D gf180mcu_fd_sc_mcu7t5v0__and2_1
*I *790:A1 I *D gf180mcu_fd_sc_mcu7t5v0__nor2_1
*I *786:A1 I *D gf180mcu_fd_sc_mcu7t5v0__nand3_1
*I *788:A1 I *D gf180mcu_fd_sc_mcu7t5v0__oai21_1
*I *889:Q O *D gf180mcu_fd_sc_mcu7t5v0__dffrnq_1
*CAP
1 *752:A1 0.000216719
2 *790:A1 0
3 *786:A1 0
4 *788:A1 7.69999e-05
5 *889:Q 0.000155828
6 *216:20 0.000414536
7 *216:14 0.000676339
8 *216:10 0.00071135
9 *216:14 *790:A2 4.1854e-05
10 *216:14 *217:8 0
11 *216:20 *217:8 0
12 *786:A3 *216:20 1.51153e-05
13 *791:A2 *216:14 0.000142047
14 *791:A2 *216:20 0.00062729
15 *810:A2 *216:10 4.82191e-05
16 *866:D *788:A1 0.000190974
17 *867:RN *216:20 0.000176508
18 *872:D *216:14 0.00015997
19 *873:D *216:14 0.00037349
20 *889:D *752:A1 0.000635511
21 *894:I *216:14 0
22 *914:I *752:A1 0.000226642
23 *914:I *216:14 0.000218998
24 *3:22 *216:14 0
25 *182:22 *752:A1 0.00178962
26 *182:22 *216:14 0.0022818
27 *182:22 *216:20 0.000129056
28 *182:30 *788:A1 0.00023968
29 *182:30 *216:20 1.39839e-05
30 *197:10 *216:10 0.000247389
31 *197:23 *216:10 0.000489638
*RES
1 *889:Q *216:10 15.39 
2 *216:10 *216:14 6.84 
3 *216:14 *216:20 3.87 
4 *216:20 *788:A1 14.67 
5 *216:20 *786:A1 4.5 
6 *216:14 *790:A1 4.5 
7 *216:10 *752:A1 9.45 
*END

*D_NET *217 0.00457163
*CONN
*I *767:A1 I *D gf180mcu_fd_sc_mcu7t5v0__nand2_2
*I *766:A1 I *D gf180mcu_fd_sc_mcu7t5v0__and2_1
*I *790:A2 I *D gf180mcu_fd_sc_mcu7t5v0__nor2_1
*I *867:Q O *D gf180mcu_fd_sc_mcu7t5v0__dffrnq_1
*CAP
1 *767:A1 0.000305511
2 *766:A1 0.000548037
3 *790:A2 0.000238719
4 *867:Q 0.000134411
5 *217:21 0.00098897
6 *217:8 0.000508552
7 *773:A2 *767:A1 3.37041e-05
8 *773:A3 *767:A1 0
9 *773:A4 *766:A1 0
10 *788:A2 *766:A1 2.65444e-06
11 *867:RN *766:A1 0
12 *867:RN *217:8 2.65444e-06
13 *875:CLK *767:A1 2.37216e-05
14 *875:CLK *217:21 4.24489e-05
15 *894:I *790:A2 4.34856e-06
16 *894:I *217:8 9.90941e-05
17 *896:I *766:A1 0.000108428
18 *65:14 *766:A1 1.03692e-05
19 *132:8 *767:A1 8.65983e-05
20 *132:17 *766:A1 0.000384522
21 *132:33 *767:A1 0
22 *134:12 *767:A1 0
23 *134:12 *217:21 0
24 *134:21 *766:A1 0.000142795
25 *134:21 *217:8 0.000242947
26 *134:25 *790:A2 0.000139748
27 *134:25 *217:21 3.67526e-05
28 *187:16 *767:A1 0.000432946
29 *187:16 *217:21 1.18477e-05
30 *216:14 *790:A2 4.1854e-05
31 *216:14 *217:8 0
32 *216:20 *217:8 0
*RES
1 *867:Q *217:8 10.53 
2 *217:8 *790:A2 10.8 
3 *217:8 *217:21 0.99 
4 *217:21 *766:A1 13.86 
5 *217:21 *767:A1 11.88 
*END
