*SPEF "ieee 1481-1999"
*DESIGN "state_machine"
*DATE "23:46:21 Sunday August 09, 2026"
*VENDOR "The OpenROAD Project"
*PROGRAM "OpenROAD"
*VERSION "26Q1-1024-gdcf36133a"
*DESIGN_FLOW "NAME_SCOPE LOCAL" "PIN_CAP NONE"
*DIVIDER /
*DELIMITER :
*BUS_DELIMITER []
*T_UNIT 1 NS
*C_UNIT 1 PF
*R_UNIT 1 OHM
*L_UNIT 1 HENRY

*NAME_MAP
*3 boot_complete
*4 cal_done
*5 cal_start
*6 cal_timeout
*7 cfg_done
*8 clk
*9 phase_offset_imported
*10 read_en
*11 rst_n
*12 soft_rst
*13 state_o[0]
*14 state_o[1]
*15 state_o[2]
*16 _00_
*17 _01_
*18 _02_
*19 _03_
*20 _04_
*21 _05_
*22 _06_
*23 _07_
*24 _08_
*25 _09_
*26 _10_
*27 _11_
*28 _12_
*29 _13_
*30 _14_
*31 _15_
*32 _16_
*33 _17_
*34 clknet_0_clk
*35 clknet_1_0__leaf_clk
*36 clknet_1_1__leaf_clk
*37 net1
*38 net10
*39 net11
*40 net12
*41 net13
*42 net2
*43 net3
*44 net4
*45 net5
*46 net6
*47 net7
*48 net8
*49 net9
*50 FILLER_0_36
*51 FILLER_0_67
*52 FILLER_0_8
*53 FILLER_1_10
*54 FILLER_1_2
*55 FILLER_1_72
*56 FILLER_2_10
*57 FILLER_2_14
*58 FILLER_2_2
*59 FILLER_2_21
*60 FILLER_2_37
*61 FILLER_2_39
*62 FILLER_3_10
*63 FILLER_3_14
*64 FILLER_3_2
*65 FILLER_3_49
*66 FILLER_3_51
*67 FILLER_3_68
*68 FILLER_3_72
*69 FILLER_4_2
*70 FILLER_4_6
*71 FILLER_4_71
*72 FILLER_4_73
*73 FILLER_5_10
*74 FILLER_5_14
*75 FILLER_5_2
*76 FILLER_5_72
*77 FILLER_6_10
*78 FILLER_6_14
*79 FILLER_6_16
*80 FILLER_6_2
*81 FILLER_6_71
*82 FILLER_6_73
*83 FILLER_7_18
*84 FILLER_7_2
*85 FILLER_7_72
*86 FILLER_8_18
*87 FILLER_8_2
*88 FILLER_8_26
*89 FILLER_8_28
*90 FILLER_8_47
*91 FILLER_8_49
*92 FILLER_9_2
*93 FILLER_9_50
*94 FILLER_9_70
*95 PHY_EDGE_ROW_0_Left_10
*96 PHY_EDGE_ROW_0_Right_0
*97 PHY_EDGE_ROW_1_Left_11
*98 PHY_EDGE_ROW_1_Right_1
*99 PHY_EDGE_ROW_2_Left_12
*100 PHY_EDGE_ROW_2_Right_2
*101 PHY_EDGE_ROW_3_Left_13
*102 PHY_EDGE_ROW_3_Right_3
*103 PHY_EDGE_ROW_4_Left_14
*104 PHY_EDGE_ROW_4_Right_4
*105 PHY_EDGE_ROW_5_Left_15
*106 PHY_EDGE_ROW_5_Right_5
*107 PHY_EDGE_ROW_6_Left_16
*108 PHY_EDGE_ROW_6_Right_6
*109 PHY_EDGE_ROW_7_Left_17
*110 PHY_EDGE_ROW_7_Right_7
*111 PHY_EDGE_ROW_8_Left_18
*112 PHY_EDGE_ROW_8_Right_8
*113 PHY_EDGE_ROW_9_Left_19
*114 PHY_EDGE_ROW_9_Right_9
*115 TAP_TAPCELL_ROW_0_20
*116 TAP_TAPCELL_ROW_0_21
*117 TAP_TAPCELL_ROW_1_22
*118 TAP_TAPCELL_ROW_2_23
*119 TAP_TAPCELL_ROW_3_24
*120 TAP_TAPCELL_ROW_4_25
*121 TAP_TAPCELL_ROW_5_26
*122 TAP_TAPCELL_ROW_6_27
*123 TAP_TAPCELL_ROW_7_28
*124 TAP_TAPCELL_ROW_8_29
*125 TAP_TAPCELL_ROW_9_30
*126 TAP_TAPCELL_ROW_9_31
*127 _18_
*128 _19_
*129 _20_
*130 _21_
*131 _22_
*132 _23_
*133 _24_
*134 _25_
*135 _26_
*136 _27_
*137 _28_
*138 _29_
*139 _30_
*140 _31_
*141 _32_
*142 _33_
*143 _34_
*144 _35_
*145 _36_
*146 _37_
*147 _38_
*148 _39_
*149 _40_
*150 clkbuf_0_clk
*151 clkbuf_1_0__f_clk
*152 clkbuf_1_1__f_clk
*153 clkload0
*154 input1
*155 input2
*156 input3
*157 input4
*158 input5
*159 input6
*160 input7
*161 load_slew13
*162 output10
*163 output11
*164 output12
*165 output8
*166 output9

*PORTS
boot_complete I
cal_done I
cal_start O
cal_timeout I
cfg_done I
clk I
phase_offset_imported I
read_en O
rst_n I
soft_rst I
state_o[0] O
state_o[1] O
state_o[2] O

*D_NET *3 0.00391163
*CONN
*P boot_complete I
*I *154:I I *D gf180mcu_fd_sc_mcu7t5v0__buf_1
*CAP
1 boot_complete 0.0018836
2 *154:I 0.0018836
3 *154:I *38:38 0.000144434
*RES
1 boot_complete *154:I 32.7941 
*END

*D_NET *4 0.00155504
*CONN
*P cal_done I
*I *155:I I *D gf180mcu_fd_sc_mcu7t5v0__buf_1
*CAP
1 cal_done 0.000777522
2 *155:I 0.000777522
3 *155:I *156:I 0
*RES
1 cal_done *155:I 18.554 
*END

*D_NET *5 0.00617027
*CONN
*P cal_start O
*I *165:Z O *D gf180mcu_fd_sc_mcu7t5v0__buf_2
*CAP
1 cal_start 0.00135975
2 *165:Z 0.00135975
3 cal_start read_en 6.49103e-05
4 cal_start *129:I 0.000525988
5 cal_start *133:A2 0.000857094
6 cal_start *134:A1 3.07734e-05
7 cal_start *136:B 0.000416796
8 cal_start *138:B2 1.9339e-05
9 cal_start *159:I 0.000145844
10 cal_start *165:I 1.52691e-05
11 cal_start *166:I 0.000142139
12 cal_start *23:10 0.000684572
13 cal_start *23:14 0.000548046
*RES
1 *165:Z cal_start 27.674 
*END

*D_NET *6 0.0018972
*CONN
*P cal_timeout I
*I *156:I I *D gf180mcu_fd_sc_mcu7t5v0__buf_1
*CAP
1 cal_timeout 0.000948602
2 *156:I 0.000948602
3 *155:I *156:I 0
*RES
1 cal_timeout *156:I 19.77 
*END

*D_NET *7 0.00425795
*CONN
*P cfg_done I
*I *157:I I *D gf180mcu_fd_sc_mcu7t5v0__buf_1
*CAP
1 cfg_done 0.00115894
2 *157:I 0.00115894
3 *157:I *129:I 3.73627e-05
4 *157:I *130:A2 1.03953e-05
5 *157:I *131:A1 8.70633e-05
6 *157:I *132:A2 0.000372314
7 *157:I *135:A1 5.12903e-05
8 *157:I *143:A1 0
9 *157:I *148:RN 0.000407462
10 *157:I *20:12 9.31296e-06
11 *157:I *38:38 0.000638349
12 *157:I *39:10 0
13 *157:I *39:29 0.00032652
*RES
1 cfg_done *157:I 19.298 
*END

*D_NET *8 0.00487819
*CONN
*P clk I
*I *150:I I *D gf180mcu_fd_sc_mcu7t5v0__clkbuf_16
*CAP
1 clk 0.00185295
2 *150:I 5.17346e-05
3 *8:18 0.00190468
4 *150:I *146:A1 2.27702e-05
5 *150:I *40:68 8.63701e-05
6 *8:18 read_en 0
7 *8:18 *133:A1 0.000304949
8 *8:18 *137:A1 0.000314968
9 *8:18 *138:A2 8.97939e-05
10 *8:18 *138:B2 2.07451e-05
11 *8:18 *146:A1 3.08568e-05
12 *8:18 *148:RN 2.06795e-05
13 *8:18 *149:RN 1.55387e-05
14 *8:18 *162:I 0
15 *8:18 *27:12 0
16 *8:18 *40:20 5.30288e-05
17 *8:18 *40:68 0.000109127
*RES
1 clk *8:18 17.9873 
2 *8:18 *150:I 5.03471 
*END

*D_NET *9 0.00402108
*CONN
*P phase_offset_imported I
*I *158:I I *D gf180mcu_fd_sc_mcu7t5v0__buf_1
*CAP
1 phase_offset_imported 0.00180026
2 *158:I 0.00180026
3 *158:I *139:B 4.5245e-05
4 *158:I *140:A2 1.80494e-06
5 *158:I *142:A1 3.78032e-05
6 *158:I *142:A2 0
7 *158:I *148:CLK 5.96562e-05
8 *158:I *161:I 4.18208e-05
9 *158:I *20:12 0
10 *158:I *27:22 0
11 *158:I *34:35 9.7928e-05
12 *158:I *34:44 9.88736e-06
13 *158:I *40:10 5.58716e-05
14 *158:I *40:20 4.36099e-05
15 *158:I *41:38 2.69335e-05
*RES
1 phase_offset_imported *158:I 19.602 
*END

*D_NET *10 0.00315617
*CONN
*P read_en O
*I *166:Z O *D gf180mcu_fd_sc_mcu7t5v0__buf_2
*CAP
1 read_en 0.00105026
2 *166:Z 0.00105026
3 read_en *166:I 0.000990747
4 cal_start read_en 6.49103e-05
5 *8:18 read_en 0
*RES
1 *166:Z read_en 21.366 
*END

*D_NET *11 0.00514807
*CONN
*P rst_n I
*I *159:I I *D gf180mcu_fd_sc_mcu7t5v0__buf_1
*CAP
1 rst_n 0.00151061
2 *159:I 0.00151061
3 *159:I *135:A4 0
4 *159:I *136:A2 0.000175061
5 *159:I *136:B 0.000116713
6 *159:I *165:I 0.00021028
7 *159:I *23:10 0.000800505
8 *159:I *23:14 0.000129681
9 *159:I *38:10 0
10 *159:I *38:51 0
11 *159:I *46:20 0
12 *159:I *48:10 0.000548768
13 cal_start *159:I 0.000145844
*RES
1 rst_n *159:I 31.414 
*END

*D_NET *12 0.00333996
*CONN
*P soft_rst I
*I *160:I I *D gf180mcu_fd_sc_mcu7t5v0__buf_1
*CAP
1 soft_rst 0.00155769
2 *160:I 0.00155769
3 *160:I state_o[1] 0
4 *160:I state_o[2] 0.000105143
5 *160:I *141:A1 3.62154e-05
6 *160:I *163:I 8.32364e-05
*RES
1 soft_rst *160:I 29.058 
*END

*D_NET *13 0.00109855
*CONN
*P state_o[0] O
*I *162:Z O *D gf180mcu_fd_sc_mcu7t5v0__buf_2
*CAP
1 state_o[0] 0.000493674
2 *162:Z 0.000493674
3 state_o[0] *162:I 0.000111199
*RES
1 *162:Z state_o[0] 12.61 
*END

*D_NET *14 0.000973185
*CONN
*P state_o[1] O
*I *163:Z O *D gf180mcu_fd_sc_mcu7t5v0__buf_2
*CAP
1 state_o[1] 0.000486593
2 *163:Z 0.000486593
3 state_o[1] *164:I 0
4 *160:I state_o[1] 0
*RES
1 *163:Z state_o[1] 12.458 
*END

*D_NET *15 0.00186244
*CONN
*P state_o[2] O
*I *164:Z O *D gf180mcu_fd_sc_mcu7t5v0__buf_2
*CAP
1 state_o[2] 0.000878648
2 *164:Z 0.000878648
3 *160:I state_o[2] 0.000105143
*RES
1 *164:Z state_o[2] 15.194 
*END

*D_NET *16 0.00327512
*CONN
*I *147:D I *D gf180mcu_fd_sc_mcu7t5v0__dffrnq_1
*I *140:ZN O *D gf180mcu_fd_sc_mcu7t5v0__aoi21_1
*CAP
1 *147:D 0.000254716
2 *140:ZN 0.000254716
3 *147:D *128:I 9.93983e-05
4 *147:D *140:A1 0.000316514
5 *147:D *148:RN 0.00119202
6 *147:D *20:12 6.69628e-05
7 *147:D *34:19 7.7907e-05
8 *147:D *39:29 0.00101289
*RES
1 *140:ZN *147:D 22.864 
*END

*D_NET *17 0.00196549
*CONN
*I *148:D I *D gf180mcu_fd_sc_mcu7t5v0__dffrnq_1
*I *144:ZN O *D gf180mcu_fd_sc_mcu7t5v0__aoi211_1
*CAP
1 *148:D 0.000458749
2 *144:ZN 0.000458749
3 *148:D *143:A1 0
4 *148:D *144:A2 7.28466e-05
5 *148:D *149:D 0.000732431
6 *148:D *149:CLK 0.000105022
7 *148:D *39:55 0.000137693
*RES
1 *144:ZN *148:D 13.028 
*END

*D_NET *18 0.00233669
*CONN
*I *149:D I *D gf180mcu_fd_sc_mcu7t5v0__dffrnq_1
*I *146:ZN O *D gf180mcu_fd_sc_mcu7t5v0__aoi211_1
*CAP
1 *149:D 0.000180323
2 *146:ZN 0.000180323
3 *149:D *144:C 0.000665887
4 *149:D *145:A2 0.000560049
5 *149:D *39:55 1.76797e-05
6 *148:D *149:D 0.000732431
*RES
1 *146:ZN *149:D 21.344 
*END

*D_NET *19 0.00107795
*CONN
*I *139:B I *D gf180mcu_fd_sc_mcu7t5v0__oai21_1
*I *127:ZN O *D gf180mcu_fd_sc_mcu7t5v0__clkinv_1
*CAP
1 *139:B 0.00030245
2 *127:ZN 0.00030245
3 *139:B *142:A1 0.000186796
4 *139:B *142:A2 1.15275e-05
5 *139:B *31:12 4.8061e-05
6 *139:B *34:19 0.000172609
7 *139:B *41:8 8.81341e-06
8 *139:B *41:38 0
9 *158:I *139:B 4.5245e-05
*RES
1 *127:ZN *139:B 11.432 
*END

*D_NET *20 0.00457783
*CONN
*I *135:A2 I *D gf180mcu_fd_sc_mcu7t5v0__or4_1
*I *130:A2 I *D gf180mcu_fd_sc_mcu7t5v0__nor3_2
*I *128:ZN O *D gf180mcu_fd_sc_mcu7t5v0__clkinv_1
*CAP
1 *135:A2 0
2 *130:A2 9.43222e-05
3 *128:ZN 0.000875396
4 *20:12 0.000969718
5 *130:A2 *131:A1 0.000137785
6 *130:A2 *135:A1 2.96621e-05
7 *130:A2 *135:A4 0.000260718
8 *130:A2 *136:A2 0.00038327
9 *130:A2 *38:38 2.2499e-05
10 *130:A2 *40:33 0.000236305
11 *20:12 *128:I 0
12 *20:12 *131:A1 0.000228612
13 *20:12 *135:A1 1.50458e-05
14 *20:12 *140:A2 0.00021764
15 *20:12 *140:B 5.32176e-05
16 *20:12 *148:RN 0.000244159
17 *20:12 *161:I 0.000640307
18 *20:12 *39:14 8.25031e-05
19 *147:D *20:12 6.69628e-05
20 *157:I *130:A2 1.03953e-05
21 *157:I *20:12 9.31296e-06
22 *158:I *20:12 0
*RES
1 *128:ZN *20:12 20.34 
2 *20:12 *130:A2 15.932 
3 *20:12 *135:A2 4.5 
*END

*D_NET *21 0.00178744
*CONN
*I *138:B2 I *D gf180mcu_fd_sc_mcu7t5v0__aoi22_2
*I *129:ZN O *D gf180mcu_fd_sc_mcu7t5v0__clkinv_1
*CAP
1 *138:B2 0.000600645
2 *129:ZN 0.000600645
3 *138:B2 *133:A1 3.96996e-05
4 *138:B2 *133:A3 4.85919e-06
5 *138:B2 *136:A1 2.22657e-05
6 *138:B2 *136:B 0.000384858
7 *138:B2 *162:I 5.84368e-05
8 *138:B2 *38:40 3.59431e-05
9 cal_start *138:B2 1.9339e-05
10 *8:18 *138:B2 2.07451e-05
*RES
1 *129:ZN *138:B2 12.952 
*END

*D_NET *22 0.00184912
*CONN
*I *133:A2 I *D gf180mcu_fd_sc_mcu7t5v0__nor3_1
*I *131:Z O *D gf180mcu_fd_sc_mcu7t5v0__and2_1
*CAP
1 *133:A2 5.37526e-05
2 *131:Z 5.37526e-05
3 *133:A2 *129:I 0.000884519
4 cal_start *133:A2 0.000857094
*RES
1 *131:Z *133:A2 20.204 
*END

*D_NET *23 0.0053281
*CONN
*I *137:A2 I *D gf180mcu_fd_sc_mcu7t5v0__and2_1
*I *136:B I *D gf180mcu_fd_sc_mcu7t5v0__oai21_1
*I *133:A3 I *D gf180mcu_fd_sc_mcu7t5v0__nor3_1
*I *132:ZN O *D gf180mcu_fd_sc_mcu7t5v0__nor2_1
*CAP
1 *137:A2 9.45516e-05
2 *136:B 0.000220969
3 *133:A3 7.26965e-05
4 *132:ZN 0.000445203
5 *23:14 0.000445861
6 *23:10 0.000691949
7 *133:A3 *133:A1 3.84261e-05
8 *137:A2 *137:A1 4.66178e-05
9 *137:A2 *27:12 3.10545e-05
10 *23:10 *143:A1 1.0313e-05
11 *23:10 *151:I 1.38698e-05
12 *23:10 *165:I 0.000117197
13 *23:10 *34:19 1.33594e-05
14 cal_start *136:B 0.000416796
15 cal_start *23:10 0.000684572
16 cal_start *23:14 0.000548046
17 *138:B2 *133:A3 4.85919e-06
18 *138:B2 *136:B 0.000384858
19 *159:I *136:B 0.000116713
20 *159:I *23:10 0.000800505
21 *159:I *23:14 0.000129681
*RES
1 *132:ZN *23:10 14.624 
2 *23:10 *23:14 1.672 
3 *23:14 *133:A3 9.38 
4 *23:14 *136:B 11.432 
5 *23:10 *137:A2 9.532 
*END

*D_NET *24 0.00285662
*CONN
*I *135:A4 I *D gf180mcu_fd_sc_mcu7t5v0__or4_1
*I *134:ZN O *D gf180mcu_fd_sc_mcu7t5v0__nor2_1
*CAP
1 *135:A4 0.000302084
2 *134:ZN 0.000302084
3 *135:A4 *136:A2 0.000170201
4 *135:A4 *165:I 2.56864e-05
5 *135:A4 *38:10 0.000331102
6 *135:A4 *38:25 0.000952488
7 *135:A4 *38:38 9.02705e-05
8 *135:A4 *40:33 0.00014967
9 *135:A4 *46:20 0.000269857
10 *135:A4 *48:10 2.46318e-06
11 *130:A2 *135:A4 0.000260718
12 *159:I *135:A4 0
*RES
1 *134:ZN *135:A4 22.332 
*END

*D_NET *25 0.000923538
*CONN
*I *138:A1 I *D gf180mcu_fd_sc_mcu7t5v0__aoi22_2
*I *135:Z O *D gf180mcu_fd_sc_mcu7t5v0__or4_1
*CAP
1 *138:A1 0.000195201
2 *135:Z 0.000195201
3 *138:A1 *130:A3 2.9378e-06
4 *138:A1 *27:12 0.000406065
5 *138:A1 *28:6 0.000105192
6 *138:A1 *40:20 1.89421e-05
*RES
1 *135:Z *138:A1 10.9 
*END

*D_NET *26 0.00165355
*CONN
*I *138:A2 I *D gf180mcu_fd_sc_mcu7t5v0__aoi22_2
*I *136:ZN O *D gf180mcu_fd_sc_mcu7t5v0__oai21_1
*CAP
1 *138:A2 0.000135828
2 *136:ZN 0.000135828
3 *138:A2 *130:A3 3.64949e-05
4 *138:A2 *136:A2 1.98965e-05
5 *138:A2 *38:38 0.000340882
6 *138:A2 *38:51 0.000396912
7 *138:A2 *38:55 0.000263004
8 *138:A2 *40:20 0.000234913
9 *8:18 *138:A2 8.97939e-05
*RES
1 *136:ZN *138:A2 20.736 
*END

*D_NET *27 0.00799113
*CONN
*I *138:B1 I *D gf180mcu_fd_sc_mcu7t5v0__aoi22_2
*I *143:A2 I *D gf180mcu_fd_sc_mcu7t5v0__oai21_1
*I *142:A2 I *D gf180mcu_fd_sc_mcu7t5v0__nand2_1
*I *137:Z O *D gf180mcu_fd_sc_mcu7t5v0__and2_1
*CAP
1 *138:B1 0.000144841
2 *143:A2 0
3 *142:A2 0.000431429
4 *137:Z 0.00043823
5 *27:22 0.00102749
6 *27:12 0.00117913
7 *138:B1 *148:RN 0.000841332
8 *138:B1 *39:10 0.000266405
9 *142:A2 *142:A1 9.5126e-05
10 *142:A2 *146:A2 0.000216497
11 *142:A2 *31:12 0.000741841
12 *142:A2 *34:19 3.68724e-06
13 *27:12 *130:A3 8.64522e-06
14 *27:12 *131:A2 2.21453e-05
15 *27:12 *137:A1 6.63508e-06
16 *27:12 *148:CLK 1.94399e-05
17 *27:12 *35:8 0.000312789
18 *27:12 *48:10 7.41459e-05
19 *27:22 *146:A1 0
20 *27:22 *146:A2 0.000920672
21 *27:22 *148:RN 0.000151949
22 *27:22 *148:CLK 0.000297457
23 *27:22 *28:6 0
24 *27:22 *39:10 4.06416e-05
25 *27:22 *39:55 0.000301949
26 *137:A2 *27:12 3.10545e-05
27 *138:A1 *27:12 0.000406065
28 *139:B *142:A2 1.15275e-05
29 *158:I *142:A2 0
30 *158:I *27:22 0
31 *8:18 *27:12 0
*RES
1 *137:Z *27:12 12.724 
2 *27:12 *27:22 14.396 
3 *27:22 *142:A2 12.344 
4 *27:22 *143:A2 9 
5 *27:12 *138:B1 11.204 
*END

*D_NET *28 0.00498275
*CONN
*I *146:A1 I *D gf180mcu_fd_sc_mcu7t5v0__aoi211_1
*I *161:I I *D gf180mcu_fd_sc_mcu7t5v0__clkbuf_2
*I *138:ZN O *D gf180mcu_fd_sc_mcu7t5v0__aoi22_2
*CAP
1 *146:A1 0.00058244
2 *161:I 0.000302354
3 *138:ZN 0.000106476
4 *28:6 0.00099127
5 *146:A1 *146:A2 0.000212822
6 *146:A1 *146:C 0.0003886
7 *146:A1 *153:I 0
8 *146:A1 *40:20 8.45349e-05
9 *146:A1 *40:68 0
10 *161:I *148:RN 2.94626e-05
11 *161:I *148:CLK 0.000493039
12 *161:I *39:10 0.00053931
13 *28:6 *40:20 0.000411498
14 *138:A1 *28:6 0.000105192
15 *150:I *146:A1 2.27702e-05
16 *158:I *161:I 4.18208e-05
17 *8:18 *146:A1 3.08568e-05
18 *20:12 *161:I 0.000640307
19 *27:22 *146:A1 0
20 *27:22 *28:6 0
*RES
1 *138:ZN *28:6 5.64 
2 *28:6 *161:I 17.3 
3 *28:6 *146:A1 9.288 
*END

*D_NET *29 0.000948104
*CONN
*I *140:B I *D gf180mcu_fd_sc_mcu7t5v0__aoi21_1
*I *139:ZN O *D gf180mcu_fd_sc_mcu7t5v0__oai21_1
*CAP
1 *140:B 0.000199654
2 *139:ZN 0.000199654
3 *140:B *140:A1 1.45007e-05
4 *140:B *140:A2 0.00043143
5 *140:B *142:A1 0
6 *140:B *34:19 4.96494e-05
7 *20:12 *140:B 5.32176e-05
*RES
1 *139:ZN *140:B 19.976 
*END

*D_NET *30 0.000627319
*CONN
*I *144:B I *D gf180mcu_fd_sc_mcu7t5v0__aoi211_1
*I *141:ZN O *D gf180mcu_fd_sc_mcu7t5v0__nor2_1
*CAP
1 *144:B 0.000170616
2 *141:ZN 0.000170616
3 *144:B *141:A1 3.49031e-05
4 *144:B *145:A2 7.98048e-05
5 *144:B *41:42 0.000171379
*RES
1 *141:ZN *144:B 19.444 
*END

*D_NET *31 0.00441327
*CONN
*I *146:A2 I *D gf180mcu_fd_sc_mcu7t5v0__aoi211_1
*I *143:B I *D gf180mcu_fd_sc_mcu7t5v0__oai21_1
*I *142:ZN O *D gf180mcu_fd_sc_mcu7t5v0__nand2_1
*CAP
1 *146:A2 0.000411315
2 *143:B 0
3 *142:ZN 0.000187625
4 *31:12 0.00059894
5 *146:A2 *127:I 0.000200217
6 *146:A2 *146:C 0.00020676
7 *146:A2 *153:I 5.26859e-05
8 *146:A2 *39:55 7.98123e-05
9 *146:A2 *47:19 0.000213918
10 *31:12 *127:I 0.000322101
11 *139:B *31:12 4.8061e-05
12 *142:A2 *146:A2 0.000216497
13 *142:A2 *31:12 0.000741841
14 *146:A1 *146:A2 0.000212822
15 *27:22 *146:A2 0.000920672
*RES
1 *142:ZN *31:12 11.66 
2 *31:12 *143:B 9 
3 *31:12 *146:A2 14.624 
*END

*D_NET *32 0.00163108
*CONN
*I *144:A2 I *D gf180mcu_fd_sc_mcu7t5v0__aoi211_1
*I *143:ZN O *D gf180mcu_fd_sc_mcu7t5v0__oai21_1
*CAP
1 *144:A2 0.000355685
2 *143:ZN 0.000355685
3 *144:A2 *127:I 2.71589e-05
4 *144:A2 *144:C 2.40328e-06
5 *144:A2 *149:CLK 2.6126e-05
6 *144:A2 *41:38 0.000301264
7 *144:A2 *41:42 0
8 *144:A2 *47:8 0.000475298
9 *144:A2 *47:19 1.46159e-05
10 *148:D *144:A2 7.28466e-05
*RES
1 *143:ZN *144:A2 20.964 
*END

*D_NET *33 0.00061902
*CONN
*I *146:B I *D gf180mcu_fd_sc_mcu7t5v0__aoi211_1
*I *145:ZN O *D gf180mcu_fd_sc_mcu7t5v0__nor2_1
*CAP
1 *146:B 0.000112201
2 *145:ZN 0.000112201
3 *146:B *145:A2 0.000394617
4 *146:B *163:I 0
*RES
1 *145:ZN *146:B 19.14 
*END

*D_NET *34 0.00318443
*CONN
*I *152:I I *D gf180mcu_fd_sc_mcu7t5v0__clkbuf_16
*I *151:I I *D gf180mcu_fd_sc_mcu7t5v0__clkbuf_16
*I *150:Z O *D gf180mcu_fd_sc_mcu7t5v0__clkbuf_16
*CAP
1 *152:I 0.000101039
2 *151:I 6.90306e-05
3 *150:Z 7.08008e-05
4 *34:44 0.000274084
5 *34:35 0.000243846
6 *34:19 0.000722269
7 *34:6 0.000653238
8 *151:I *134:A1 8.0352e-06
9 *151:I *165:I 4.27914e-05
10 *151:I *46:20 9.14616e-05
11 *152:I *41:38 4.26931e-05
12 *34:19 *139:A1 2.83649e-05
13 *34:19 *140:A1 5.20066e-05
14 *34:19 *142:A1 4.65542e-05
15 *34:19 *38:10 2.27434e-05
16 *34:19 *46:20 0.000177548
17 *34:35 *41:38 4.68184e-05
18 *34:44 *41:38 5.22046e-05
19 *139:B *34:19 0.000172609
20 *140:B *34:19 4.96494e-05
21 *142:A2 *34:19 3.68724e-06
22 *147:D *34:19 7.7907e-05
23 *158:I *34:35 9.7928e-05
24 *158:I *34:44 9.88736e-06
25 *23:10 *151:I 1.38698e-05
26 *23:10 *34:19 1.33594e-05
*RES
1 *150:Z *34:6 9 
2 *34:6 *34:19 9.212 
3 *34:19 *151:I 5.184 
4 *150:Z *34:35 5.184 
5 *34:35 *34:44 1.14 
6 *34:44 *152:I 5.184 
*END

*D_NET *35 0.00264781
*CONN
*I *148:CLK I *D gf180mcu_fd_sc_mcu7t5v0__dffrnq_1
*I *147:CLK I *D gf180mcu_fd_sc_mcu7t5v0__dffrnq_1
*I *151:Z O *D gf180mcu_fd_sc_mcu7t5v0__clkbuf_16
*CAP
1 *148:CLK 0.000153534
2 *147:CLK 0
3 *151:Z 0.000240096
4 *35:8 0.00039363
5 *148:CLK *39:14 0.000306994
6 *148:CLK *39:55 0.00013063
7 *35:8 *131:A1 8.03499e-06
8 *35:8 *131:A2 0.000190975
9 *35:8 *132:A2 1.15069e-05
10 *35:8 *39:14 3.00299e-05
11 *158:I *148:CLK 5.96562e-05
12 *161:I *148:CLK 0.000493039
13 *27:12 *148:CLK 1.94399e-05
14 *27:12 *35:8 0.000312789
15 *27:22 *148:CLK 0.000297457
*RES
1 *151:Z *35:8 6.78 
2 *35:8 *147:CLK 4.5 
3 *35:8 *148:CLK 15.932 
*END

*D_NET *36 0.00163983
*CONN
*I *153:I I *D gf180mcu_fd_sc_mcu7t5v0__clkbuf_2
*I *149:CLK I *D gf180mcu_fd_sc_mcu7t5v0__dffrnq_1
*I *152:Z O *D gf180mcu_fd_sc_mcu7t5v0__clkbuf_16
*CAP
1 *153:I 0.000186655
2 *149:CLK 9.04142e-05
3 *152:Z 0.00027707
4 *149:CLK *41:38 0
5 *149:CLK *47:8 0.000124318
6 *153:I *164:I 0
7 *153:I *39:55 0.000777537
8 *144:A2 *149:CLK 2.6126e-05
9 *146:A1 *153:I 0
10 *146:A2 *153:I 5.26859e-05
11 *148:D *149:CLK 0.000105022
*RES
1 *152:Z *149:CLK 9.988 
2 *152:Z *153:I 11.052 
*END

*D_NET *37 0.00210192
*CONN
*I *136:A2 I *D gf180mcu_fd_sc_mcu7t5v0__oai21_1
*I *154:Z O *D gf180mcu_fd_sc_mcu7t5v0__buf_1
*CAP
1 *136:A2 0.00037244
2 *154:Z 0.00037244
3 *136:A2 *38:38 6.57222e-06
4 *136:A2 *38:51 0.000147697
5 *136:A2 *38:55 0.000119807
6 *136:A2 *48:10 0.00033453
7 *130:A2 *136:A2 0.00038327
8 *135:A4 *136:A2 0.000170201
9 *138:A2 *136:A2 1.98965e-05
10 *159:I *136:A2 0.000175061
*RES
1 *154:Z *136:A2 23.244 
*END

*D_NET *38 0.0133526
*CONN
*I *140:A1 I *D gf180mcu_fd_sc_mcu7t5v0__aoi21_1
*I *162:I I *D gf180mcu_fd_sc_mcu7t5v0__buf_2
*I *133:A1 I *D gf180mcu_fd_sc_mcu7t5v0__nor3_1
*I *130:A1 I *D gf180mcu_fd_sc_mcu7t5v0__nor3_2
*I *137:A1 I *D gf180mcu_fd_sc_mcu7t5v0__and2_1
*I *136:A1 I *D gf180mcu_fd_sc_mcu7t5v0__oai21_1
*I *135:A1 I *D gf180mcu_fd_sc_mcu7t5v0__or4_1
*I *139:A1 I *D gf180mcu_fd_sc_mcu7t5v0__oai21_1
*I *147:Q O *D gf180mcu_fd_sc_mcu7t5v0__dffrnq_1
*CAP
1 *140:A1 0.00014443
2 *162:I 0.000824744
3 *133:A1 0.000323865
4 *130:A1 0
5 *137:A1 0.000335541
6 *136:A1 3.33293e-05
7 *135:A1 4.72889e-05
8 *139:A1 0.000208256
9 *147:Q 0
10 *38:55 0.000361845
11 *38:51 0.000390647
12 *38:40 0.000158037
13 *38:38 0.00108636
14 *38:25 0.000498234
15 *38:10 0.000667504
16 *38:4 0.000330121
17 *137:A1 *48:10 7.57513e-06
18 *139:A1 *132:A1 7.32209e-05
19 *139:A1 *143:A1 0
20 *139:A1 *39:29 0.000173698
21 *139:A1 *46:20 0.000361046
22 *140:A1 *128:I 0
23 *162:I *145:A1 5.85821e-06
24 *162:I *148:RN 5.73914e-05
25 *162:I *149:RN 0.000108362
26 *162:I *40:10 0.000319528
27 *162:I *40:68 5.75586e-05
28 *38:10 *128:I 0.000571475
29 *38:25 *128:I 8.15645e-05
30 *38:25 *132:A2 0.000246233
31 *38:25 *39:29 4.78516e-05
32 *38:38 *132:A2 0.00025099
33 *38:38 *40:33 0.000616712
34 state_o[0] *162:I 0.000111199
35 *130:A2 *135:A1 2.96621e-05
36 *130:A2 *38:38 2.2499e-05
37 *133:A3 *133:A1 3.84261e-05
38 *135:A4 *38:10 0.000331102
39 *135:A4 *38:25 0.000952488
40 *135:A4 *38:38 9.02705e-05
41 *136:A2 *38:38 6.57222e-06
42 *136:A2 *38:51 0.000147697
43 *136:A2 *38:55 0.000119807
44 *137:A2 *137:A1 4.66178e-05
45 *138:A2 *38:38 0.000340882
46 *138:A2 *38:51 0.000396912
47 *138:A2 *38:55 0.000263004
48 *138:B2 *133:A1 3.96996e-05
49 *138:B2 *136:A1 2.22657e-05
50 *138:B2 *162:I 5.84368e-05
51 *138:B2 *38:40 3.59431e-05
52 *140:B *140:A1 1.45007e-05
53 *147:D *140:A1 0.000316514
54 *154:I *38:38 0.000144434
55 *157:I *135:A1 5.12903e-05
56 *157:I *38:38 0.000638349
57 *159:I *38:10 0
58 *159:I *38:51 0
59 *8:18 *133:A1 0.000304949
60 *8:18 *137:A1 0.000314968
61 *8:18 *162:I 0
62 *20:12 *135:A1 1.50458e-05
63 *27:12 *137:A1 6.63508e-06
64 *34:19 *139:A1 2.83649e-05
65 *34:19 *140:A1 5.20066e-05
66 *34:19 *38:10 2.27434e-05
*RES
1 *147:Q *38:4 4.5 
2 *38:4 *38:10 6.476 
3 *38:10 *139:A1 10.824 
4 *38:10 *38:25 2.888 
5 *38:25 *135:A1 9.38 
6 *38:25 *38:38 8.832 
7 *38:38 *38:40 0.532 
8 *38:40 *136:A1 4.728 
9 *38:40 *38:51 5.64 
10 *38:51 *38:55 5.184 
11 *38:55 *137:A1 6.856 
12 *38:55 *130:A1 4.5 
13 *38:51 *133:A1 11.432 
14 *38:38 *162:I 10.808 
15 *38:4 *140:A1 5.944 
*END

*D_NET *39 0.0137509
*CONN
*I *163:I I *D gf180mcu_fd_sc_mcu7t5v0__buf_2
*I *141:A1 I *D gf180mcu_fd_sc_mcu7t5v0__nor2_1
*I *128:I I *D gf180mcu_fd_sc_mcu7t5v0__clkinv_1
*I *132:A1 I *D gf180mcu_fd_sc_mcu7t5v0__nor2_1
*I *131:A1 I *D gf180mcu_fd_sc_mcu7t5v0__and2_1
*I *148:Q O *D gf180mcu_fd_sc_mcu7t5v0__dffrnq_1
*CAP
1 *163:I 0.000376794
2 *141:A1 0.000585398
3 *128:I 0.000633122
4 *132:A1 0.000115832
5 *131:A1 0.00033061
6 *148:Q 0.000297878
7 *39:55 0.00148771
8 *39:29 0.000993862
9 *39:14 0.000693295
10 *39:10 0.000941172
11 *131:A1 *129:I 4.58601e-06
12 *131:A1 *131:A2 0.000319037
13 *131:A1 *132:A2 0.000125852
14 *132:A1 *132:A2 1.54665e-06
15 *132:A1 *143:A1 0
16 *132:A1 *46:20 3.95494e-05
17 *141:A1 *145:A2 0
18 *141:A1 *41:38 4.58601e-06
19 *141:A1 *47:8 9.67786e-05
20 *163:I *145:A2 0
21 *39:10 *148:RN 2.95418e-05
22 *39:10 *40:10 0.000203817
23 *39:10 *40:20 0.000164532
24 *39:14 *131:A2 2.17248e-05
25 *39:29 *132:A2 0.000176806
26 *39:29 *143:A1 0
27 *39:29 *148:RN 4.71425e-05
28 *39:55 *144:C 0.00034605
29 *39:55 *47:8 0
30 *130:A2 *131:A1 0.000137785
31 *138:B1 *39:10 0.000266405
32 *139:A1 *132:A1 7.32209e-05
33 *139:A1 *39:29 0.000173698
34 *140:A1 *128:I 0
35 *144:B *141:A1 3.49031e-05
36 *146:A2 *39:55 7.98123e-05
37 *146:B *163:I 0
38 *147:D *128:I 9.93983e-05
39 *147:D *39:29 0.00101289
40 *148:D *39:55 0.000137693
41 *148:CLK *39:14 0.000306994
42 *148:CLK *39:55 0.00013063
43 *149:D *39:55 1.76797e-05
44 *153:I *39:55 0.000777537
45 *157:I *131:A1 8.70633e-05
46 *157:I *39:10 0
47 *157:I *39:29 0.00032652
48 *160:I *141:A1 3.62154e-05
49 *160:I *163:I 8.32364e-05
50 *161:I *39:10 0.00053931
51 *20:12 *128:I 0
52 *20:12 *131:A1 0.000228612
53 *20:12 *39:14 8.25031e-05
54 *27:22 *39:10 4.06416e-05
55 *27:22 *39:55 0.000301949
56 *35:8 *131:A1 8.03499e-06
57 *35:8 *39:14 3.00299e-05
58 *38:10 *128:I 0.000571475
59 *38:25 *128:I 8.15645e-05
60 *38:25 *39:29 4.78516e-05
*RES
1 *148:Q *39:10 17.224 
2 *39:10 *39:14 1.368 
3 *39:14 *131:A1 7.464 
4 *39:14 *39:29 12.496 
5 *39:29 *132:A1 5.26 
6 *39:29 *128:I 17.756 
7 *39:10 *39:55 10.2 
8 *39:55 *141:A1 12.572 
9 *39:55 *163:I 11.356 
*END

*D_NET *40 0.0104083
*CONN
*I *145:A1 I *D gf180mcu_fd_sc_mcu7t5v0__nor2_1
*I *164:I I *D gf180mcu_fd_sc_mcu7t5v0__buf_2
*I *131:A2 I *D gf180mcu_fd_sc_mcu7t5v0__and2_1
*I *132:A2 I *D gf180mcu_fd_sc_mcu7t5v0__nor2_1
*I *135:A3 I *D gf180mcu_fd_sc_mcu7t5v0__or4_1
*I *130:A3 I *D gf180mcu_fd_sc_mcu7t5v0__nor3_2
*I *149:Q O *D gf180mcu_fd_sc_mcu7t5v0__dffrnq_1
*CAP
1 *145:A1 4.73478e-05
2 *164:I 0.000458624
3 *131:A2 0.000264301
4 *132:A2 0.000367127
5 *135:A3 0
6 *130:A3 2.46086e-05
7 *149:Q 0.000379782
8 *40:68 0.000922992
9 *40:33 0.000686081
10 *40:20 0.000433098
11 *40:10 0.00115064
12 *132:A2 *143:A1 0.000127484
13 *164:I *146:C 0.000147797
14 *40:68 *146:C 4.06377e-05
15 *40:68 *149:RN 0.000718687
16 state_o[1] *164:I 0
17 *130:A2 *40:33 0.000236305
18 *131:A1 *131:A2 0.000319037
19 *131:A1 *132:A2 0.000125852
20 *132:A1 *132:A2 1.54665e-06
21 *135:A4 *40:33 0.00014967
22 *138:A1 *130:A3 2.9378e-06
23 *138:A1 *40:20 1.89421e-05
24 *138:A2 *130:A3 3.64949e-05
25 *138:A2 *40:20 0.000234913
26 *146:A1 *40:20 8.45349e-05
27 *146:A1 *40:68 0
28 *150:I *40:68 8.63701e-05
29 *153:I *164:I 0
30 *157:I *132:A2 0.000372314
31 *158:I *40:10 5.58716e-05
32 *158:I *40:20 4.36099e-05
33 *162:I *145:A1 5.85821e-06
34 *162:I *40:10 0.000319528
35 *162:I *40:68 5.75586e-05
36 *8:18 *40:20 5.30288e-05
37 *8:18 *40:68 0.000109127
38 *27:12 *130:A3 8.64522e-06
39 *27:12 *131:A2 2.21453e-05
40 *28:6 *40:20 0.000411498
41 *35:8 *131:A2 0.000190975
42 *35:8 *132:A2 1.15069e-05
43 *38:25 *132:A2 0.000246233
44 *38:38 *132:A2 0.00025099
45 *38:38 *40:33 0.000616712
46 *39:10 *40:10 0.000203817
47 *39:10 *40:20 0.000164532
48 *39:14 *131:A2 2.17248e-05
49 *39:29 *132:A2 0.000176806
*RES
1 *149:Q *40:10 12.192 
2 *40:10 *40:20 7.692 
3 *40:20 *130:A3 4.728 
4 *40:20 *40:33 10.596 
5 *40:33 *135:A3 4.5 
6 *40:33 *132:A2 17.148 
7 *40:33 *131:A2 6.932 
8 *40:10 *40:68 8.376 
9 *40:68 *164:I 7.616 
10 *40:68 *145:A1 4.956 
*END

*D_NET *41 0.00580931
*CONN
*I *141:A2 I *D gf180mcu_fd_sc_mcu7t5v0__nor2_1
*I *145:A2 I *D gf180mcu_fd_sc_mcu7t5v0__nor2_1
*I *144:A1 I *D gf180mcu_fd_sc_mcu7t5v0__aoi211_1
*I *139:A2 I *D gf180mcu_fd_sc_mcu7t5v0__oai21_1
*I *140:A2 I *D gf180mcu_fd_sc_mcu7t5v0__aoi21_1
*I *161:Z O *D gf180mcu_fd_sc_mcu7t5v0__clkbuf_2
*CAP
1 *141:A2 0
2 *145:A2 0.000343142
3 *144:A1 0
4 *139:A2 0
5 *140:A2 6.59559e-05
6 *161:Z 0
7 *41:42 0.00066273
8 *41:38 0.00096535
9 *41:8 0.000220224
10 *41:4 0.00080003
11 *41:8 *143:A1 0
12 *41:38 *143:A1 0.000384279
13 *41:38 *47:8 2.75585e-05
14 *139:B *41:8 8.81341e-06
15 *139:B *41:38 0
16 *140:B *140:A2 0.00043143
17 *141:A1 *145:A2 0
18 *141:A1 *41:38 4.58601e-06
19 *144:A2 *41:38 0.000301264
20 *144:A2 *41:42 0
21 *144:B *145:A2 7.98048e-05
22 *144:B *41:42 0.000171379
23 *146:B *145:A2 0.000394617
24 *149:D *145:A2 0.000560049
25 *149:CLK *41:38 0
26 *152:I *41:38 4.26931e-05
27 *158:I *140:A2 1.80494e-06
28 *158:I *41:38 2.69335e-05
29 *163:I *145:A2 0
30 *20:12 *140:A2 0.00021764
31 *34:35 *41:38 4.68184e-05
32 *34:44 *41:38 5.22046e-05
*RES
1 *161:Z *41:4 4.5 
2 *41:4 *41:8 0.912 
3 *41:8 *140:A2 14.792 
4 *41:8 *139:A2 4.5 
5 *41:4 *41:38 5.244 
6 *41:38 *41:42 6.096 
7 *41:42 *144:A1 9 
8 *41:42 *145:A2 12.268 
9 *41:38 *141:A2 4.5 
*END

*D_NET *42 0.00119486
*CONN
*I *134:A2 I *D gf180mcu_fd_sc_mcu7t5v0__nor2_1
*I *155:Z O *D gf180mcu_fd_sc_mcu7t5v0__buf_1
*CAP
1 *134:A2 0.000597431
2 *155:Z 0.000597431
*RES
1 *155:Z *134:A2 12.8 
*END

*D_NET *43 0.000989503
*CONN
*I *134:A1 I *D gf180mcu_fd_sc_mcu7t5v0__nor2_1
*I *156:Z O *D gf180mcu_fd_sc_mcu7t5v0__buf_1
*CAP
1 *134:A1 0.000368187
2 *156:Z 0.000368187
3 *134:A1 *165:I 0
4 *134:A1 *46:20 0.00021432
5 cal_start *134:A1 3.07734e-05
6 *151:I *134:A1 8.0352e-06
*RES
1 *156:Z *134:A1 11.584 
*END

*D_NET *44 0.00312933
*CONN
*I *129:I I *D gf180mcu_fd_sc_mcu7t5v0__clkinv_1
*I *157:Z O *D gf180mcu_fd_sc_mcu7t5v0__buf_1
*CAP
1 *129:I 0.00023165
2 *157:Z 0.00023165
3 *129:I *166:I 0.00121357
4 cal_start *129:I 0.000525988
5 *131:A1 *129:I 4.58601e-06
6 *133:A2 *129:I 0.000884519
7 *157:I *129:I 3.73627e-05
*RES
1 *157:Z *129:I 23.168 
*END

*D_NET *45 0.000701963
*CONN
*I *142:A1 I *D gf180mcu_fd_sc_mcu7t5v0__nand2_1
*I *158:Z O *D gf180mcu_fd_sc_mcu7t5v0__buf_1
*CAP
1 *142:A1 0.000167842
2 *158:Z 0.000167842
3 *139:B *142:A1 0.000186796
4 *140:B *142:A1 0
5 *142:A2 *142:A1 9.5126e-05
6 *158:I *142:A1 3.78032e-05
7 *34:19 *142:A1 4.65542e-05
*RES
1 *158:Z *142:A1 19.368 
*END

*D_NET *46 0.00705791
*CONN
*I *149:RN I *D gf180mcu_fd_sc_mcu7t5v0__dffrnq_1
*I *147:RN I *D gf180mcu_fd_sc_mcu7t5v0__dffrnq_1
*I *148:RN I *D gf180mcu_fd_sc_mcu7t5v0__dffrnq_1
*I *159:Z O *D gf180mcu_fd_sc_mcu7t5v0__buf_1
*CAP
1 *149:RN 0.000165659
2 *147:RN 0
3 *148:RN 0.000705566
4 *159:Z 0.000314636
5 *46:20 0.000854542
6 *132:A1 *46:20 3.95494e-05
7 *134:A1 *46:20 0.00021432
8 *135:A4 *46:20 0.000269857
9 *138:B1 *148:RN 0.000841332
10 *139:A1 *46:20 0.000361046
11 *147:D *148:RN 0.00119202
12 *151:I *46:20 9.14616e-05
13 *157:I *148:RN 0.000407462
14 *159:I *46:20 0
15 *161:I *148:RN 2.94626e-05
16 *162:I *148:RN 5.73914e-05
17 *162:I *149:RN 0.000108362
18 *8:18 *148:RN 2.06795e-05
19 *8:18 *149:RN 1.55387e-05
20 *20:12 *148:RN 0.000244159
21 *27:22 *148:RN 0.000151949
22 *34:19 *46:20 0.000177548
23 *39:10 *148:RN 2.95418e-05
24 *39:29 *148:RN 4.71425e-05
25 *40:68 *149:RN 0.000718687
*RES
1 *159:Z *46:20 16.996 
2 *46:20 *148:RN 20.796 
3 *46:20 *147:RN 4.5 
4 *148:RN *149:RN 11.052 
*END

*D_NET *47 0.00619476
*CONN
*I *146:C I *D gf180mcu_fd_sc_mcu7t5v0__aoi211_1
*I *144:C I *D gf180mcu_fd_sc_mcu7t5v0__aoi211_1
*I *127:I I *D gf180mcu_fd_sc_mcu7t5v0__clkinv_1
*I *160:Z O *D gf180mcu_fd_sc_mcu7t5v0__buf_1
*CAP
1 *146:C 0.000450338
2 *144:C 9.74497e-05
3 *127:I 0.000389018
4 *160:Z 0.000399728
5 *47:19 0.000658581
6 *47:8 0.00089954
7 *141:A1 *47:8 9.67786e-05
8 *144:A2 *127:I 2.71589e-05
9 *144:A2 *144:C 2.40328e-06
10 *144:A2 *47:8 0.000475298
11 *144:A2 *47:19 1.46159e-05
12 *146:A1 *146:C 0.0003886
13 *146:A2 *127:I 0.000200217
14 *146:A2 *146:C 0.00020676
15 *146:A2 *47:19 0.000213918
16 *149:D *144:C 0.000665887
17 *149:CLK *47:8 0.000124318
18 *164:I *146:C 0.000147797
19 *31:12 *127:I 0.000322101
20 *39:55 *144:C 0.00034605
21 *39:55 *47:8 0
22 *40:68 *146:C 4.06377e-05
23 *41:38 *47:8 2.75585e-05
*RES
1 *160:Z *47:8 12.268 
2 *47:8 *127:I 11.964 
3 *47:8 *47:19 1.14 
4 *47:19 *144:C 11.052 
5 *47:19 *146:C 12.952 
*END

*D_NET *48 0.00502006
*CONN
*I *143:A1 I *D gf180mcu_fd_sc_mcu7t5v0__oai21_1
*I *165:I I *D gf180mcu_fd_sc_mcu7t5v0__buf_2
*I *130:ZN O *D gf180mcu_fd_sc_mcu7t5v0__nor3_2
*CAP
1 *143:A1 0.000891411
2 *165:I 0.000364292
3 *130:ZN 0.000303934
4 *48:10 0.00155964
5 cal_start *165:I 1.52691e-05
6 *132:A1 *143:A1 0
7 *132:A2 *143:A1 0.000127484
8 *134:A1 *165:I 0
9 *135:A4 *165:I 2.56864e-05
10 *135:A4 *48:10 2.46318e-06
11 *136:A2 *48:10 0.00033453
12 *137:A1 *48:10 7.57513e-06
13 *139:A1 *143:A1 0
14 *148:D *143:A1 0
15 *151:I *165:I 4.27914e-05
16 *157:I *143:A1 0
17 *159:I *165:I 0.00021028
18 *159:I *48:10 0.000548768
19 *23:10 *143:A1 1.0313e-05
20 *23:10 *165:I 0.000117197
21 *27:12 *48:10 7.41459e-05
22 *39:29 *143:A1 0
23 *41:8 *143:A1 0
24 *41:38 *143:A1 0.000384279
*RES
1 *130:ZN *48:10 12.648 
2 *48:10 *165:I 11.736 
3 *48:10 *143:A1 14.624 
*END

*D_NET *49 0.0028168
*CONN
*I *166:I I *D gf180mcu_fd_sc_mcu7t5v0__buf_2
*I *133:ZN O *D gf180mcu_fd_sc_mcu7t5v0__nor3_1
*CAP
1 *166:I 0.000235169
2 *133:ZN 0.000235169
3 cal_start *166:I 0.000142139
4 read_en *166:I 0.000990747
5 *129:I *166:I 0.00121357
*RES
1 *133:ZN *166:I 22.332 
*END
