*SPEF "ieee 1481-1999"
*DESIGN "state_machine"
*DATE "23:46:21 Sunday August 09, 2026"
*VENDOR "The OpenROAD Project"
*PROGRAM "OpenROAD"
*VERSION "26Q1-1024-gdcf36133a"
*DESIGN_FLOW "NAME_SCOPE LOCAL" "PIN_CAP NONE"
*DIVIDER /
*DELIMITER :
*BUS_DELIMITER []
*T_UNIT 1 NS
*C_UNIT 1 PF
*R_UNIT 1 OHM
*L_UNIT 1 HENRY

*NAME_MAP
*3 boot_complete
*4 cal_done
*5 cal_start
*6 cal_timeout
*7 cfg_done
*8 clk
*9 phase_offset_imported
*10 read_en
*11 rst_n
*12 soft_rst
*13 state_o[0]
*14 state_o[1]
*15 state_o[2]
*16 _00_
*17 _01_
*18 _02_
*19 _03_
*20 _04_
*21 _05_
*22 _06_
*23 _07_
*24 _08_
*25 _09_
*26 _10_
*27 _11_
*28 _12_
*29 _13_
*30 _14_
*31 _15_
*32 _16_
*33 _17_
*34 clknet_0_clk
*35 clknet_1_0__leaf_clk
*36 clknet_1_1__leaf_clk
*37 net1
*38 net10
*39 net11
*40 net12
*41 net13
*42 net2
*43 net3
*44 net4
*45 net5
*46 net6
*47 net7
*48 net8
*49 net9
*50 FILLER_0_36
*51 FILLER_0_67
*52 FILLER_0_8
*53 FILLER_1_10
*54 FILLER_1_2
*55 FILLER_1_72
*56 FILLER_2_10
*57 FILLER_2_14
*58 FILLER_2_2
*59 FILLER_2_21
*60 FILLER_2_37
*61 FILLER_2_39
*62 FILLER_3_10
*63 FILLER_3_14
*64 FILLER_3_2
*65 FILLER_3_49
*66 FILLER_3_51
*67 FILLER_3_68
*68 FILLER_3_72
*69 FILLER_4_2
*70 FILLER_4_6
*71 FILLER_4_71
*72 FILLER_4_73
*73 FILLER_5_10
*74 FILLER_5_14
*75 FILLER_5_2
*76 FILLER_5_72
*77 FILLER_6_10
*78 FILLER_6_14
*79 FILLER_6_16
*80 FILLER_6_2
*81 FILLER_6_71
*82 FILLER_6_73
*83 FILLER_7_18
*84 FILLER_7_2
*85 FILLER_7_72
*86 FILLER_8_18
*87 FILLER_8_2
*88 FILLER_8_26
*89 FILLER_8_28
*90 FILLER_8_47
*91 FILLER_8_49
*92 FILLER_9_2
*93 FILLER_9_50
*94 FILLER_9_70
*95 PHY_EDGE_ROW_0_Left_10
*96 PHY_EDGE_ROW_0_Right_0
*97 PHY_EDGE_ROW_1_Left_11
*98 PHY_EDGE_ROW_1_Right_1
*99 PHY_EDGE_ROW_2_Left_12
*100 PHY_EDGE_ROW_2_Right_2
*101 PHY_EDGE_ROW_3_Left_13
*102 PHY_EDGE_ROW_3_Right_3
*103 PHY_EDGE_ROW_4_Left_14
*104 PHY_EDGE_ROW_4_Right_4
*105 PHY_EDGE_ROW_5_Left_15
*106 PHY_EDGE_ROW_5_Right_5
*107 PHY_EDGE_ROW_6_Left_16
*108 PHY_EDGE_ROW_6_Right_6
*109 PHY_EDGE_ROW_7_Left_17
*110 PHY_EDGE_ROW_7_Right_7
*111 PHY_EDGE_ROW_8_Left_18
*112 PHY_EDGE_ROW_8_Right_8
*113 PHY_EDGE_ROW_9_Left_19
*114 PHY_EDGE_ROW_9_Right_9
*115 TAP_TAPCELL_ROW_0_20
*116 TAP_TAPCELL_ROW_0_21
*117 TAP_TAPCELL_ROW_1_22
*118 TAP_TAPCELL_ROW_2_23
*119 TAP_TAPCELL_ROW_3_24
*120 TAP_TAPCELL_ROW_4_25
*121 TAP_TAPCELL_ROW_5_26
*122 TAP_TAPCELL_ROW_6_27
*123 TAP_TAPCELL_ROW_7_28
*124 TAP_TAPCELL_ROW_8_29
*125 TAP_TAPCELL_ROW_9_30
*126 TAP_TAPCELL_ROW_9_31
*127 _18_
*128 _19_
*129 _20_
*130 _21_
*131 _22_
*132 _23_
*133 _24_
*134 _25_
*135 _26_
*136 _27_
*137 _28_
*138 _29_
*139 _30_
*140 _31_
*141 _32_
*142 _33_
*143 _34_
*144 _35_
*145 _36_
*146 _37_
*147 _38_
*148 _39_
*149 _40_
*150 clkbuf_0_clk
*151 clkbuf_1_0__f_clk
*152 clkbuf_1_1__f_clk
*153 clkload0
*154 input1
*155 input2
*156 input3
*157 input4
*158 input5
*159 input6
*160 input7
*161 load_slew13
*162 output10
*163 output11
*164 output12
*165 output8
*166 output9

*PORTS
boot_complete I
cal_done I
cal_start O
cal_timeout I
cfg_done I
clk I
phase_offset_imported I
read_en O
rst_n I
soft_rst I
state_o[0] O
state_o[1] O
state_o[2] O

*D_NET *3 0.00449832
*CONN
*P boot_complete I
*I *154:I I *D gf180mcu_fd_sc_mcu7t5v0__buf_1
*CAP
1 boot_complete 0.00205647
2 *154:I 0.00205647
3 *154:I *136:A2 0.000101062
4 *154:I *138:A2 0.000110971
5 *154:I *38:38 0.000173342
*RES
1 boot_complete *154:I 35.0308 
*END

*D_NET *4 0.00178159
*CONN
*P cal_done I
*I *155:I I *D gf180mcu_fd_sc_mcu7t5v0__buf_1
*CAP
1 cal_done 0.000890795
2 *155:I 0.000890795
3 *155:I *156:I 0
*RES
1 cal_done *155:I 20.416 
*END

*D_NET *5 0.00756417
*CONN
*P cal_start O
*I *165:Z O *D gf180mcu_fd_sc_mcu7t5v0__buf_2
*CAP
1 cal_start 0.00168406
2 *165:Z 0.00168406
3 cal_start read_en 6.57995e-05
4 cal_start *129:I 0.000599253
5 cal_start *133:A2 0.00112882
6 cal_start *134:A1 3.3698e-05
7 cal_start *136:B 0.000549257
8 cal_start *138:B2 2.01691e-05
9 cal_start *159:I 0.000152461
10 cal_start *165:I 1.60338e-05
11 cal_start *166:I 0.000149676
12 cal_start *23:10 0.000758306
13 cal_start *23:14 0.000722586
*RES
1 *165:Z cal_start 32.896 
*END

*D_NET *6 0.00215468
*CONN
*P cal_timeout I
*I *156:I I *D gf180mcu_fd_sc_mcu7t5v0__buf_1
*CAP
1 cal_timeout 0.00107734
2 *156:I 0.00107734
3 *155:I *156:I 0
*RES
1 cal_timeout *156:I 22.08 
*END

*D_NET *7 0.00519577
*CONN
*P cfg_done I
*I *157:I I *D gf180mcu_fd_sc_mcu7t5v0__buf_1
*CAP
1 cfg_done 0.00145461
2 *157:I 0.00145461
3 *157:I *129:I 4.18157e-05
4 *157:I *130:A2 1.08521e-05
5 *157:I *131:A1 8.68515e-05
6 *157:I *132:A2 0.000490944
7 *157:I *135:A1 5.60265e-05
8 *157:I *143:A1 0
9 *157:I *148:RN 0.000444496
10 *157:I *20:12 8.28065e-06
11 *157:I *38:38 0.000717292
12 *157:I *39:10 0
13 *157:I *39:29 0.00042999
*RES
1 cfg_done *157:I 23.092 
*END

*D_NET *8 0.00578678
*CONN
*P clk I
*I *150:I I *D gf180mcu_fd_sc_mcu7t5v0__clkbuf_16
*CAP
1 clk 0.0022415
2 *150:I 6.89157e-05
3 *8:18 0.00231042
4 *150:I *146:A1 2.343e-05
5 *150:I *40:68 9.64337e-05
6 *8:18 read_en 0
7 *8:18 *133:A1 0.000336851
8 *8:18 *137:A1 0.000351538
9 *8:18 *138:A2 9.52747e-05
10 *8:18 *138:B2 2.05001e-05
11 *8:18 *146:A1 3.18968e-05
12 *8:18 *148:RN 1.90865e-05
13 *8:18 *149:RN 1.65832e-05
14 *8:18 *162:I 0
15 *8:18 *27:12 0
16 *8:18 *40:20 5.27681e-05
17 *8:18 *40:68 0.000121589
*RES
1 clk *8:18 22.9563 
2 *8:18 *150:I 5.23171 
*END

*D_NET *9 0.00483235
*CONN
*P phase_offset_imported I
*I *158:I I *D gf180mcu_fd_sc_mcu7t5v0__buf_1
*CAP
1 phase_offset_imported 0.00219722
2 *158:I 0.00219722
3 *158:I *139:B 4.79873e-05
4 *158:I *140:A2 1.63725e-06
5 *158:I *142:A1 3.93494e-05
6 *158:I *142:A2 0
7 *158:I *148:CLK 5.99769e-05
8 *158:I *161:I 4.0964e-05
9 *158:I *20:12 0
10 *158:I *27:22 0
11 *158:I *34:35 0.000109682
12 *158:I *34:44 1.07369e-05
13 *158:I *40:10 5.57789e-05
14 *158:I *40:20 4.36364e-05
15 *158:I *41:38 2.8167e-05
*RES
1 phase_offset_imported *158:I 23.508 
*END

*D_NET *10 0.00383714
*CONN
*P read_en O
*I *166:Z O *D gf180mcu_fd_sc_mcu7t5v0__buf_2
*CAP
1 read_en 0.00123328
2 *166:Z 0.00123328
3 read_en *166:I 0.00130479
4 cal_start read_en 6.57995e-05
5 *8:18 read_en 0
*RES
1 *166:Z read_en 24.264 
*END

*D_NET *11 0.00612572
*CONN
*P rst_n I
*I *159:I I *D gf180mcu_fd_sc_mcu7t5v0__buf_1
*CAP
1 rst_n 0.00188332
2 *159:I 0.00188332
3 *159:I *135:A4 0
4 *159:I *136:A2 0.000185689
5 *159:I *136:B 0.000126483
6 *159:I *165:I 0.000234715
7 *159:I *23:10 0.000901661
8 *159:I *23:14 0.000139343
9 *159:I *38:10 0
10 *159:I *38:51 0
11 *159:I *46:20 0
12 *159:I *48:10 0.000618733
13 cal_start *159:I 0.000152461
*RES
1 rst_n *159:I 36.356 
*END

*D_NET *12 0.00379397
*CONN
*P soft_rst I
*I *160:I I *D gf180mcu_fd_sc_mcu7t5v0__buf_1
*CAP
1 soft_rst 0.00177743
2 *160:I 0.00177743
3 *160:I state_o[1] 0
4 *160:I state_o[2] 0.00011238
5 *160:I *141:A1 3.8585e-05
6 *160:I *163:I 8.81428e-05
*RES
1 soft_rst *160:I 33.132 
*END

*D_NET *13 0.00124898
*CONN
*P state_o[0] O
*I *162:Z O *D gf180mcu_fd_sc_mcu7t5v0__buf_2
*CAP
1 state_o[0] 0.00056499
2 *162:Z 0.00056499
3 state_o[0] *162:I 0.000119004
*RES
1 *162:Z state_o[0] 13.94 
*END

*D_NET *14 0.00108129
*CONN
*P state_o[1] O
*I *163:Z O *D gf180mcu_fd_sc_mcu7t5v0__buf_2
*CAP
1 state_o[1] 0.000540644
2 *163:Z 0.000540644
3 state_o[1] *164:I 0
4 *160:I state_o[1] 0
*RES
1 *163:Z state_o[1] 13.732 
*END

*D_NET *15 0.00211767
*CONN
*P state_o[2] O
*I *164:Z O *D gf180mcu_fd_sc_mcu7t5v0__buf_2
*CAP
1 state_o[2] 0.00100265
2 *164:Z 0.00100265
3 *160:I state_o[2] 0.00011238
*RES
1 *164:Z state_o[2] 17.476 
*END

*D_NET *16 0.0043076
*CONN
*I *147:D I *D gf180mcu_fd_sc_mcu7t5v0__dffrnq_1
*I *140:ZN O *D gf180mcu_fd_sc_mcu7t5v0__aoi21_1
*CAP
1 *147:D 0.000363461
2 *140:ZN 0.000363461
3 *147:D *128:I 0.000102686
4 *147:D *140:A1 0.000418046
5 *147:D *148:RN 0.00157143
6 *147:D *20:12 7.04186e-05
7 *147:D *34:19 8.25309e-05
8 *147:D *39:29 0.00133556
*RES
1 *140:ZN *147:D 24.656 
*END

*D_NET *17 0.0024846
*CONN
*I *148:D I *D gf180mcu_fd_sc_mcu7t5v0__dffrnq_1
*I *144:ZN O *D gf180mcu_fd_sc_mcu7t5v0__aoi211_1
*CAP
1 *148:D 0.00059214
2 *144:ZN 0.00059214
3 *148:D *143:A1 0
4 *148:D *144:A2 7.71138e-05
5 *148:D *149:D 0.000966936
6 *148:D *149:CLK 0.0001133
7 *148:D *39:55 0.000142973
*RES
1 *144:ZN *148:D 14.512 
*END

*D_NET *18 0.0030885
*CONN
*I *149:D I *D gf180mcu_fd_sc_mcu7t5v0__dffrnq_1
*I *146:ZN O *D gf180mcu_fd_sc_mcu7t5v0__aoi211_1
*CAP
1 *149:D 0.000242719
2 *146:ZN 0.000242719
3 *149:D *144:C 0.000879289
4 *149:D *145:A2 0.000737647
5 *149:D *39:55 1.91879e-05
6 *148:D *149:D 0.000966936
*RES
1 *146:ZN *149:D 22.576 
*END

*D_NET *19 0.00133951
*CONN
*I *139:B I *D gf180mcu_fd_sc_mcu7t5v0__oai21_1
*I *127:ZN O *D gf180mcu_fd_sc_mcu7t5v0__clkinv_1
*CAP
1 *139:B 0.000390931
2 *127:ZN 0.000390931
3 *139:B *142:A1 0.000247057
4 *139:B *142:A2 1.23682e-05
5 *139:B *31:12 5.0582e-05
6 *139:B *34:19 0.000191207
7 *139:B *41:8 8.44565e-06
8 *139:B *41:38 0
9 *158:I *139:B 4.79873e-05
*RES
1 *127:ZN *139:B 12.328 
*END

*D_NET *20 0.00575406
*CONN
*I *135:A2 I *D gf180mcu_fd_sc_mcu7t5v0__or4_1
*I *130:A2 I *D gf180mcu_fd_sc_mcu7t5v0__nor3_2
*I *128:ZN O *D gf180mcu_fd_sc_mcu7t5v0__clkinv_1
*CAP
1 *135:A2 0
2 *130:A2 0.000144068
3 *128:ZN 0.00114215
4 *20:12 0.00128622
5 *130:A2 *131:A1 0.000182219
6 *130:A2 *135:A1 3.22108e-05
7 *130:A2 *135:A4 0.000343539
8 *130:A2 *136:A2 0.000433441
9 *130:A2 *38:38 2.47495e-05
10 *130:A2 *40:33 0.000268172
11 *20:12 *128:I 0
12 *20:12 *131:A1 0.000304249
13 *20:12 *135:A1 1.56624e-05
14 *20:12 *140:A2 0.000242822
15 *20:12 *140:B 5.56115e-05
16 *20:12 *148:RN 0.000254952
17 *20:12 *161:I 0.000847228
18 *20:12 *39:14 8.72203e-05
19 *147:D *20:12 7.04186e-05
20 *157:I *130:A2 1.08521e-05
21 *157:I *20:12 8.28065e-06
22 *158:I *20:12 0
*RES
1 *128:ZN *20:12 22.86 
2 *20:12 *130:A2 16.828 
3 *20:12 *135:A2 4.5 
*END

*D_NET *21 0.00227829
*CONN
*I *138:B2 I *D gf180mcu_fd_sc_mcu7t5v0__aoi22_2
*I *129:ZN O *D gf180mcu_fd_sc_mcu7t5v0__clkinv_1
*CAP
1 *138:B2 0.000782538
2 *129:ZN 0.000782538
3 *138:B2 *133:A1 4.01733e-05
4 *138:B2 *133:A3 4.10573e-06
5 *138:B2 *136:A1 2.38656e-05
6 *138:B2 *136:B 0.000504447
7 *138:B2 *162:I 6.24609e-05
8 *138:B2 *38:40 3.74914e-05
9 cal_start *138:B2 2.01691e-05
10 *8:18 *138:B2 2.05001e-05
*RES
1 *129:ZN *138:B2 14.408 
*END

*D_NET *22 0.00246454
*CONN
*I *133:A2 I *D gf180mcu_fd_sc_mcu7t5v0__nor3_1
*I *131:Z O *D gf180mcu_fd_sc_mcu7t5v0__and2_1
*CAP
1 *133:A2 8.58317e-05
2 *131:Z 8.58317e-05
3 *133:A2 *129:I 0.00116407
4 cal_start *133:A2 0.00112882
*RES
1 *131:Z *133:A2 21.016 
*END

*D_NET *23 0.00671094
*CONN
*I *137:A2 I *D gf180mcu_fd_sc_mcu7t5v0__and2_1
*I *136:B I *D gf180mcu_fd_sc_mcu7t5v0__oai21_1
*I *133:A3 I *D gf180mcu_fd_sc_mcu7t5v0__nor3_1
*I *132:ZN O *D gf180mcu_fd_sc_mcu7t5v0__nor2_1
*CAP
1 *137:A2 0.000137158
2 *136:B 0.00028579
3 *133:A3 0.000104239
4 *132:ZN 0.000628799
5 *23:14 0.000592571
6 *23:10 0.000968499
7 *133:A3 *133:A1 4.01502e-05
8 *137:A2 *137:A1 4.82695e-05
9 *137:A2 *27:12 3.11243e-05
10 *23:10 *143:A1 9.8588e-06
11 *23:10 *151:I 1.29626e-05
12 *23:10 *165:I 0.00013182
13 *23:10 *34:19 1.35124e-05
14 cal_start *136:B 0.000549257
15 cal_start *23:10 0.000758306
16 cal_start *23:14 0.000722586
17 *138:B2 *133:A3 4.10573e-06
18 *138:B2 *136:B 0.000504447
19 *159:I *136:B 0.000126483
20 *159:I *23:10 0.000901661
21 *159:I *23:14 0.000139343
*RES
1 *132:ZN *23:10 16.696 
2 *23:10 *23:14 2.288 
3 *23:14 *133:A3 9.52 
4 *23:14 *136:B 12.328 
5 *23:10 *137:A2 9.728 
*END

*D_NET *24 0.00375016
*CONN
*I *135:A4 I *D gf180mcu_fd_sc_mcu7t5v0__or4_1
*I *134:ZN O *D gf180mcu_fd_sc_mcu7t5v0__nor2_1
*CAP
1 *135:A4 0.000425702
2 *134:ZN 0.000425702
3 *135:A4 *136:A2 0.000181064
4 *135:A4 *165:I 2.54619e-05
5 *135:A4 *38:10 0.000435879
6 *135:A4 *38:25 0.0012571
7 *135:A4 *38:38 0.000101161
8 *135:A4 *40:33 0.000197059
9 *135:A4 *46:20 0.000355286
10 *135:A4 *48:10 2.20209e-06
11 *130:A2 *135:A4 0.000343539
12 *159:I *135:A4 0
*RES
1 *134:ZN *135:A4 23.928 
*END

*D_NET *25 0.00119686
*CONN
*I *138:A1 I *D gf180mcu_fd_sc_mcu7t5v0__aoi22_2
*I *135:Z O *D gf180mcu_fd_sc_mcu7t5v0__or4_1
*CAP
1 *138:A1 0.000252877
2 *135:Z 0.000252877
3 *138:A1 *130:A3 2.81522e-06
4 *138:A1 *27:12 0.000537812
5 *138:A1 *28:6 0.000132754
6 *138:A1 *40:20 1.77191e-05
*RES
1 *135:Z *138:A1 11.6 
*END

*D_NET *26 0.00222982
*CONN
*I *138:A2 I *D gf180mcu_fd_sc_mcu7t5v0__aoi22_2
*I *136:ZN O *D gf180mcu_fd_sc_mcu7t5v0__oai21_1
*CAP
1 *138:A2 0.000201871
2 *136:ZN 0.000201871
3 *138:A2 *130:A3 4.07552e-05
4 *138:A2 *136:A2 2.17376e-05
5 *138:A2 *38:38 0.000386969
6 *138:A2 *38:51 0.000522341
7 *138:A2 *38:55 0.000346478
8 *138:A2 *40:20 0.000301548
9 *154:I *138:A2 0.000110971
10 *8:18 *138:A2 9.52747e-05
*RES
1 *136:ZN *138:A2 21.744 
*END

*D_NET *27 0.0102663
*CONN
*I *138:B1 I *D gf180mcu_fd_sc_mcu7t5v0__aoi22_2
*I *143:A2 I *D gf180mcu_fd_sc_mcu7t5v0__oai21_1
*I *142:A2 I *D gf180mcu_fd_sc_mcu7t5v0__nand2_1
*I *137:Z O *D gf180mcu_fd_sc_mcu7t5v0__and2_1
*CAP
1 *138:B1 0.000203819
2 *143:A2 0
3 *142:A2 0.00056996
4 *137:Z 0.000589168
5 *27:22 0.00133569
6 *27:12 0.00155872
7 *138:B1 *148:RN 0.00110762
8 *138:B1 *39:10 0.000289626
9 *142:A2 *142:A1 0.000103002
10 *142:A2 *146:A2 0.000286638
11 *142:A2 *31:12 0.000961812
12 *142:A2 *34:19 3.71745e-06
13 *27:12 *130:A3 9.01048e-06
14 *27:12 *131:A2 2.1827e-05
15 *27:12 *137:A1 6.84196e-06
16 *27:12 *148:CLK 2.05998e-05
17 *27:12 *35:8 0.000347333
18 *27:12 *48:10 8.13929e-05
19 *27:22 *146:A1 0
20 *27:22 *146:A2 0.00121282
21 *27:22 *148:RN 0.000199988
22 *27:22 *148:CLK 0.000393438
23 *27:22 *28:6 0
24 *27:22 *39:10 4.38131e-05
25 *27:22 *39:55 0.000338197
26 *137:A2 *27:12 3.11243e-05
27 *138:A1 *27:12 0.000537812
28 *139:B *142:A2 1.23682e-05
29 *158:I *142:A2 0
30 *158:I *27:22 0
31 *8:18 *27:12 0
*RES
1 *137:Z *27:12 14.096 
2 *27:12 *27:22 16.384 
3 *27:22 *142:A2 13.576 
4 *27:22 *143:A2 9 
5 *27:12 *138:B1 12.016 
*END

*D_NET *28 0.00636449
*CONN
*I *146:A1 I *D gf180mcu_fd_sc_mcu7t5v0__aoi211_1
*I *161:I I *D gf180mcu_fd_sc_mcu7t5v0__clkbuf_2
*I *138:ZN O *D gf180mcu_fd_sc_mcu7t5v0__aoi22_2
*CAP
1 *146:A1 0.000736641
2 *161:I 0.000397801
3 *138:ZN 0.000145307
4 *28:6 0.00127975
5 *146:A1 *146:A2 0.000228326
6 *146:A1 *146:C 0.000449094
7 *146:A1 *153:I 0
8 *146:A1 *40:20 0.000111821
9 *146:A1 *40:68 0
10 *161:I *148:RN 3.13081e-05
11 *161:I *148:CLK 0.000651423
12 *161:I *39:10 0.000712611
13 *28:6 *40:20 0.000544137
14 *138:A1 *28:6 0.000132754
15 *150:I *146:A1 2.343e-05
16 *158:I *161:I 4.0964e-05
17 *8:18 *146:A1 3.18968e-05
18 *20:12 *161:I 0.000847228
19 *27:22 *146:A1 0
20 *27:22 *28:6 0
*RES
1 *138:ZN *28:6 6.06 
2 *28:6 *161:I 18.7 
3 *28:6 *146:A1 11.052 
*END

*D_NET *29 0.00119473
*CONN
*I *140:B I *D gf180mcu_fd_sc_mcu7t5v0__aoi21_1
*I *139:ZN O *D gf180mcu_fd_sc_mcu7t5v0__oai21_1
*CAP
1 *140:B 0.000250559
2 *139:ZN 0.000250559
3 *140:B *140:A1 1.65042e-05
4 *140:B *140:A2 0.000570038
5 *140:B *142:A1 0
6 *140:B *34:19 5.14565e-05
7 *20:12 *140:B 5.56115e-05
*RES
1 *139:ZN *140:B 20.704 
*END

*D_NET *30 0.000773683
*CONN
*I *144:B I *D gf180mcu_fd_sc_mcu7t5v0__aoi211_1
*I *141:ZN O *D gf180mcu_fd_sc_mcu7t5v0__nor2_1
*CAP
1 *144:B 0.000228375
2 *141:ZN 0.000228375
3 *144:B *141:A1 3.61445e-05
4 *144:B *145:A2 9.11499e-05
5 *144:B *41:42 0.000189638
*RES
1 *141:ZN *144:B 19.976 
*END

*D_NET *31 0.00559983
*CONN
*I *146:A2 I *D gf180mcu_fd_sc_mcu7t5v0__aoi211_1
*I *143:B I *D gf180mcu_fd_sc_mcu7t5v0__oai21_1
*I *142:ZN O *D gf180mcu_fd_sc_mcu7t5v0__nand2_1
*CAP
1 *146:A2 0.000565374
2 *143:B 0
3 *142:ZN 0.000264034
4 *31:12 0.000829408
5 *146:A2 *127:I 0.000222329
6 *146:A2 *146:C 0.000234643
7 *146:A2 *153:I 5.40546e-05
8 *146:A2 *39:55 8.24941e-05
9 *146:A2 *47:19 0.000243466
10 *31:12 *127:I 0.000363852
11 *139:B *31:12 5.0582e-05
12 *142:A2 *146:A2 0.000286638
13 *142:A2 *31:12 0.000961812
14 *146:A1 *146:A2 0.000228326
15 *27:22 *146:A2 0.00121282
*RES
1 *142:ZN *31:12 12.64 
2 *31:12 *143:B 9 
3 *31:12 *146:A2 16.696 
*END

*D_NET *32 0.00211053
*CONN
*I *144:A2 I *D gf180mcu_fd_sc_mcu7t5v0__aoi211_1
*I *143:ZN O *D gf180mcu_fd_sc_mcu7t5v0__oai21_1
*CAP
1 *144:A2 0.000473045
2 *143:ZN 0.000473045
3 *144:A2 *127:I 2.55631e-05
4 *144:A2 *144:C 2.39156e-06
5 *144:A2 *149:CLK 3.4596e-05
6 *144:A2 *41:38 0.000395417
7 *144:A2 *41:42 0
8 *144:A2 *47:8 0.000614435
9 *144:A2 *47:19 1.49279e-05
10 *148:D *144:A2 7.71138e-05
*RES
1 *143:ZN *144:A2 22.056 
*END

*D_NET *33 0.000786232
*CONN
*I *146:B I *D gf180mcu_fd_sc_mcu7t5v0__aoi211_1
*I *145:ZN O *D gf180mcu_fd_sc_mcu7t5v0__nor2_1
*CAP
1 *146:B 0.00013342
2 *145:ZN 0.00013342
3 *146:B *145:A2 0.000519391
4 *146:B *163:I 0
*RES
1 *145:ZN *146:B 19.56 
*END

*D_NET *34 0.00391808
*CONN
*I *152:I I *D gf180mcu_fd_sc_mcu7t5v0__clkbuf_16
*I *151:I I *D gf180mcu_fd_sc_mcu7t5v0__clkbuf_16
*I *150:Z O *D gf180mcu_fd_sc_mcu7t5v0__clkbuf_16
*CAP
1 *152:I 0.000124681
2 *151:I 9.51124e-05
3 *150:Z 9.87691e-05
4 *34:44 0.000341886
5 *34:35 0.000315974
6 *34:19 0.00095433
7 *34:6 0.000859217
8 *151:I *134:A1 8.16884e-06
9 *151:I *165:I 4.63426e-05
10 *151:I *46:20 0.000102981
11 *152:I *41:38 4.38891e-05
12 *34:19 *139:A1 2.82803e-05
13 *34:19 *140:A1 5.58483e-05
14 *34:19 *142:A1 4.86488e-05
15 *34:19 *38:10 2.26497e-05
16 *34:19 *46:20 0.000193241
17 *34:35 *41:38 4.82603e-05
18 *34:44 *41:38 5.39934e-05
19 *139:B *34:19 0.000191207
20 *140:B *34:19 5.14565e-05
21 *142:A2 *34:19 3.71745e-06
22 *147:D *34:19 8.25309e-05
23 *158:I *34:35 0.000109682
24 *158:I *34:44 1.07369e-05
25 *23:10 *151:I 1.29626e-05
26 *23:10 *34:19 1.35124e-05
*RES
1 *150:Z *34:6 9 
2 *34:6 *34:19 10.948 
3 *34:19 *151:I 5.436 
4 *150:Z *34:35 5.436 
5 *34:35 *34:44 1.56 
6 *34:44 *152:I 5.436 
*END

*D_NET *35 0.00342626
*CONN
*I *148:CLK I *D gf180mcu_fd_sc_mcu7t5v0__dffrnq_1
*I *147:CLK I *D gf180mcu_fd_sc_mcu7t5v0__dffrnq_1
*I *151:Z O *D gf180mcu_fd_sc_mcu7t5v0__clkbuf_16
*CAP
1 *148:CLK 0.0002155
2 *147:CLK 0
3 *151:Z 0.000340364
4 *35:8 0.000555863
5 *148:CLK *39:14 0.000405753
6 *148:CLK *39:55 0.00017298
7 *35:8 *131:A1 7.52965e-06
8 *35:8 *131:A2 0.000211158
9 *35:8 *132:A2 1.00774e-05
10 *35:8 *39:14 3.42651e-05
11 *158:I *148:CLK 5.99769e-05
12 *161:I *148:CLK 0.000651423
13 *27:12 *148:CLK 2.05998e-05
14 *27:12 *35:8 0.000347333
15 *27:22 *148:CLK 0.000393438
*RES
1 *151:Z *35:8 7.62 
2 *35:8 *147:CLK 4.5 
3 *35:8 *148:CLK 16.828 
*END

*D_NET *36 0.00210162
*CONN
*I *153:I I *D gf180mcu_fd_sc_mcu7t5v0__clkbuf_2
*I *149:CLK I *D gf180mcu_fd_sc_mcu7t5v0__dffrnq_1
*I *152:Z O *D gf180mcu_fd_sc_mcu7t5v0__clkbuf_16
*CAP
1 *153:I 0.000242595
2 *149:CLK 0.000124199
3 *152:Z 0.000366794
4 *149:CLK *41:38 0
5 *149:CLK *47:8 0.000139186
6 *153:I *164:I 0
7 *153:I *39:55 0.0010269
8 *144:A2 *149:CLK 3.4596e-05
9 *146:A1 *153:I 0
10 *146:A2 *153:I 5.40546e-05
11 *148:D *149:CLK 0.0001133
*RES
1 *152:Z *149:CLK 10.352 
2 *152:Z *153:I 11.808 
*END

*D_NET *37 0.00261273
*CONN
*I *136:A2 I *D gf180mcu_fd_sc_mcu7t5v0__oai21_1
*I *154:Z O *D gf180mcu_fd_sc_mcu7t5v0__buf_1
*CAP
1 *136:A2 0.000510663
2 *154:Z 0.000510663
3 *136:A2 *38:38 7.11788e-06
4 *136:A2 *38:51 0.000167616
5 *136:A2 *38:55 0.00013468
6 *136:A2 *48:10 0.000359001
7 *130:A2 *136:A2 0.000433441
8 *135:A4 *136:A2 0.000181064
9 *138:A2 *136:A2 2.17376e-05
10 *154:I *136:A2 0.000101062
11 *159:I *136:A2 0.000185689
*RES
1 *154:Z *136:A2 25.176 
*END

*D_NET *38 0.016899
*CONN
*I *140:A1 I *D gf180mcu_fd_sc_mcu7t5v0__aoi21_1
*I *162:I I *D gf180mcu_fd_sc_mcu7t5v0__buf_2
*I *133:A1 I *D gf180mcu_fd_sc_mcu7t5v0__nor3_1
*I *130:A1 I *D gf180mcu_fd_sc_mcu7t5v0__nor3_2
*I *137:A1 I *D gf180mcu_fd_sc_mcu7t5v0__and2_1
*I *136:A1 I *D gf180mcu_fd_sc_mcu7t5v0__oai21_1
*I *135:A1 I *D gf180mcu_fd_sc_mcu7t5v0__or4_1
*I *139:A1 I *D gf180mcu_fd_sc_mcu7t5v0__oai21_1
*I *147:Q O *D gf180mcu_fd_sc_mcu7t5v0__dffrnq_1
*CAP
1 *140:A1 0.000174628
2 *162:I 0.00103534
3 *133:A1 0.000432556
4 *130:A1 0
5 *137:A1 0.000455898
6 *136:A1 4.20837e-05
7 *135:A1 7.07815e-05
8 *139:A1 0.000272635
9 *147:Q 0
10 *38:55 0.000497697
11 *38:51 0.000528133
12 *38:40 0.000205399
13 *38:38 0.00141516
14 *38:25 0.000727483
15 *38:10 0.000903897
16 *38:4 0.000419477
17 *137:A1 *48:10 6.77605e-06
18 *139:A1 *132:A1 9.7618e-05
19 *139:A1 *143:A1 0
20 *139:A1 *39:29 0.000229531
21 *139:A1 *46:20 0.000476483
22 *140:A1 *128:I 0
23 *162:I *145:A1 5.87987e-06
24 *162:I *148:RN 6.00655e-05
25 *162:I *149:RN 0.000111048
26 *162:I *40:10 0.000358528
27 *162:I *40:68 5.94969e-05
28 *38:10 *128:I 0.000752333
29 *38:25 *128:I 0.000107648
30 *38:25 *132:A2 0.000274699
31 *38:25 *39:29 4.76311e-05
32 *38:38 *132:A2 0.000331109
33 *38:38 *40:33 0.000812351
34 state_o[0] *162:I 0.000119004
35 *130:A2 *135:A1 3.22108e-05
36 *130:A2 *38:38 2.47495e-05
37 *133:A3 *133:A1 4.01502e-05
38 *135:A4 *38:10 0.000435879
39 *135:A4 *38:25 0.0012571
40 *135:A4 *38:38 0.000101161
41 *136:A2 *38:38 7.11788e-06
42 *136:A2 *38:51 0.000167616
43 *136:A2 *38:55 0.00013468
44 *137:A2 *137:A1 4.82695e-05
45 *138:A2 *38:38 0.000386969
46 *138:A2 *38:51 0.000522341
47 *138:A2 *38:55 0.000346478
48 *138:B2 *133:A1 4.01733e-05
49 *138:B2 *136:A1 2.38656e-05
50 *138:B2 *162:I 6.24609e-05
51 *138:B2 *38:40 3.74914e-05
52 *140:B *140:A1 1.65042e-05
53 *147:D *140:A1 0.000418046
54 *154:I *38:38 0.000173342
55 *157:I *135:A1 5.60265e-05
56 *157:I *38:38 0.000717292
57 *159:I *38:10 0
58 *159:I *38:51 0
59 *8:18 *133:A1 0.000336851
60 *8:18 *137:A1 0.000351538
61 *8:18 *162:I 0
62 *20:12 *135:A1 1.56624e-05
63 *27:12 *137:A1 6.84196e-06
64 *34:19 *139:A1 2.82803e-05
65 *34:19 *140:A1 5.58483e-05
66 *34:19 *38:10 2.26497e-05
*RES
1 *147:Q *38:4 4.5 
2 *38:4 *38:10 7.204 
3 *38:10 *139:A1 11.496 
4 *38:10 *38:25 3.952 
5 *38:25 *135:A1 9.52 
6 *38:25 *38:38 10.428 
7 *38:38 *38:40 0.728 
8 *38:40 *136:A1 4.812 
9 *38:40 *38:51 6.06 
10 *38:51 *38:55 5.436 
11 *38:55 *137:A1 7.724 
12 *38:55 *130:A1 4.5 
13 *38:51 *133:A1 12.328 
14 *38:38 *162:I 13.132 
15 *38:4 *140:A1 6.476 
*END

*D_NET *39 0.0173588
*CONN
*I *163:I I *D gf180mcu_fd_sc_mcu7t5v0__buf_2
*I *141:A1 I *D gf180mcu_fd_sc_mcu7t5v0__nor2_1
*I *128:I I *D gf180mcu_fd_sc_mcu7t5v0__clkinv_1
*I *132:A1 I *D gf180mcu_fd_sc_mcu7t5v0__nor2_1
*I *131:A1 I *D gf180mcu_fd_sc_mcu7t5v0__and2_1
*I *148:Q O *D gf180mcu_fd_sc_mcu7t5v0__dffrnq_1
*CAP
1 *163:I 0.00045268
2 *141:A1 0.000724564
3 *128:I 0.000782533
4 *132:A1 0.000149331
5 *131:A1 0.000463743
6 *148:Q 0.000402476
7 *39:55 0.00188567
8 *39:29 0.001286
9 *39:14 0.000971653
10 *39:10 0.00126468
11 *131:A1 *129:I 4.67771e-06
12 *131:A1 *131:A2 0.00035349
13 *131:A1 *132:A2 0.000167955
14 *132:A1 *132:A2 1.02177e-06
15 *132:A1 *143:A1 0
16 *132:A1 *46:20 4.29477e-05
17 *141:A1 *145:A2 0
18 *141:A1 *41:38 4.67771e-06
19 *141:A1 *47:8 0.000100949
20 *163:I *145:A2 0
21 *39:10 *148:RN 2.97086e-05
22 *39:10 *40:10 0.000227211
23 *39:10 *40:20 0.000183215
24 *39:14 *131:A2 2.36218e-05
25 *39:29 *132:A2 0.000192186
26 *39:29 *143:A1 0
27 *39:29 *148:RN 5.23324e-05
28 *39:55 *144:C 0.000388707
29 *39:55 *47:8 0
30 *130:A2 *131:A1 0.000182219
31 *138:B1 *39:10 0.000289626
32 *139:A1 *132:A1 9.7618e-05
33 *139:A1 *39:29 0.000229531
34 *140:A1 *128:I 0
35 *144:B *141:A1 3.61445e-05
36 *146:A2 *39:55 8.24941e-05
37 *146:B *163:I 0
38 *147:D *128:I 0.000102686
39 *147:D *39:29 0.00133556
40 *148:D *39:55 0.000142973
41 *148:CLK *39:14 0.000405753
42 *148:CLK *39:55 0.00017298
43 *149:D *39:55 1.91879e-05
44 *153:I *39:55 0.0010269
45 *157:I *131:A1 8.68515e-05
46 *157:I *39:10 0
47 *157:I *39:29 0.00042999
48 *160:I *141:A1 3.8585e-05
49 *160:I *163:I 8.81428e-05
50 *161:I *39:10 0.000712611
51 *20:12 *128:I 0
52 *20:12 *131:A1 0.000304249
53 *20:12 *39:14 8.72203e-05
54 *27:22 *39:10 4.38131e-05
55 *27:22 *39:55 0.000338197
56 *35:8 *131:A1 7.52965e-06
57 *35:8 *39:14 3.42651e-05
58 *38:10 *128:I 0.000752333
59 *38:25 *128:I 0.000107648
60 *38:25 *39:29 4.76311e-05
*RES
1 *148:Q *39:10 18.596 
2 *39:10 *39:14 1.872 
3 *39:14 *131:A1 8.556 
4 *39:14 *39:29 13.784 
5 *39:29 *132:A1 5.54 
6 *39:29 *128:I 19.324 
7 *39:10 *39:55 12.3 
8 *39:55 *141:A1 13.888 
9 *39:55 *163:I 12.224 
*END

*D_NET *40 0.0131478
*CONN
*I *145:A1 I *D gf180mcu_fd_sc_mcu7t5v0__nor2_1
*I *164:I I *D gf180mcu_fd_sc_mcu7t5v0__buf_2
*I *131:A2 I *D gf180mcu_fd_sc_mcu7t5v0__and2_1
*I *132:A2 I *D gf180mcu_fd_sc_mcu7t5v0__nor2_1
*I *135:A3 I *D gf180mcu_fd_sc_mcu7t5v0__or4_1
*I *130:A3 I *D gf180mcu_fd_sc_mcu7t5v0__nor3_2
*I *149:Q O *D gf180mcu_fd_sc_mcu7t5v0__dffrnq_1
*CAP
1 *145:A1 5.60124e-05
2 *164:I 0.000553344
3 *131:A2 0.000368837
4 *132:A2 0.00050882
5 *135:A3 0
6 *130:A3 3.28832e-05
7 *149:Q 0.000488539
8 *40:68 0.00113486
9 *40:33 0.000963066
10 *40:20 0.000602408
11 *40:10 0.00149816
12 *132:A2 *143:A1 0.000169324
13 *164:I *146:C 0.00019239
14 *40:68 *146:C 4.15512e-05
15 *40:68 *149:RN 0.000949635
16 state_o[1] *164:I 0
17 *130:A2 *40:33 0.000268172
18 *131:A1 *131:A2 0.00035349
19 *131:A1 *132:A2 0.000167955
20 *132:A1 *132:A2 1.02177e-06
21 *135:A4 *40:33 0.000197059
22 *138:A1 *130:A3 2.81522e-06
23 *138:A1 *40:20 1.77191e-05
24 *138:A2 *130:A3 4.07552e-05
25 *138:A2 *40:20 0.000301548
26 *146:A1 *40:20 0.000111821
27 *146:A1 *40:68 0
28 *150:I *40:68 9.64337e-05
29 *153:I *164:I 0
30 *157:I *132:A2 0.000490944
31 *158:I *40:10 5.57789e-05
32 *158:I *40:20 4.36364e-05
33 *162:I *145:A1 5.87987e-06
34 *162:I *40:10 0.000358528
35 *162:I *40:68 5.94969e-05
36 *8:18 *40:20 5.27681e-05
37 *8:18 *40:68 0.000121589
38 *27:12 *130:A3 9.01048e-06
39 *27:12 *131:A2 2.1827e-05
40 *28:6 *40:20 0.000544137
41 *35:8 *131:A2 0.000211158
42 *35:8 *132:A2 1.00774e-05
43 *38:25 *132:A2 0.000274699
44 *38:38 *132:A2 0.000331109
45 *38:38 *40:33 0.000812351
46 *39:10 *40:10 0.000227211
47 *39:10 *40:20 0.000183215
48 *39:14 *131:A2 2.36218e-05
49 *39:29 *132:A2 0.000192186
*RES
1 *149:Q *40:10 13.368 
2 *40:10 *40:20 8.868 
3 *40:20 *130:A3 4.812 
4 *40:20 *40:33 11.184 
5 *40:33 *135:A3 4.5 
6 *40:33 *132:A2 18.492 
7 *40:33 *131:A2 7.828 
8 *40:10 *40:68 9.804 
9 *40:68 *164:I 8.764 
10 *40:68 *145:A1 5.124 
*END

*D_NET *41 0.00729766
*CONN
*I *141:A2 I *D gf180mcu_fd_sc_mcu7t5v0__nor2_1
*I *145:A2 I *D gf180mcu_fd_sc_mcu7t5v0__nor2_1
*I *144:A1 I *D gf180mcu_fd_sc_mcu7t5v0__aoi211_1
*I *139:A2 I *D gf180mcu_fd_sc_mcu7t5v0__oai21_1
*I *140:A2 I *D gf180mcu_fd_sc_mcu7t5v0__aoi21_1
*I *161:Z O *D gf180mcu_fd_sc_mcu7t5v0__clkbuf_2
*CAP
1 *141:A2 0
2 *145:A2 0.000418566
3 *144:A1 0
4 *139:A2 0
5 *140:A2 9.38145e-05
6 *161:Z 0
7 *41:42 0.000839979
8 *41:38 0.00123874
9 *41:8 0.000276521
10 *41:4 0.00100003
11 *41:8 *143:A1 0
12 *41:38 *143:A1 0.000466509
13 *41:38 *47:8 2.83332e-05
14 *139:B *41:8 8.44565e-06
15 *139:B *41:38 0
16 *140:B *140:A2 0.000570038
17 *141:A1 *145:A2 0
18 *141:A1 *41:38 4.67771e-06
19 *144:A2 *41:38 0.000395417
20 *144:A2 *41:42 0
21 *144:B *145:A2 9.11499e-05
22 *144:B *41:42 0.000189638
23 *146:B *145:A2 0.000519391
24 *149:D *145:A2 0.000737647
25 *149:CLK *41:38 0
26 *152:I *41:38 4.38891e-05
27 *158:I *140:A2 1.63725e-06
28 *158:I *41:38 2.8167e-05
29 *163:I *145:A2 0
30 *20:12 *140:A2 0.000242822
31 *34:35 *41:38 4.82603e-05
32 *34:44 *41:38 5.39934e-05
*RES
1 *161:Z *41:4 4.5 
2 *41:4 *41:8 1.248 
3 *41:8 *140:A2 15.268 
4 *41:8 *139:A2 4.5 
5 *41:4 *41:38 7.176 
6 *41:38 *41:42 6.684 
7 *41:42 *144:A1 9 
8 *41:42 *145:A2 13.472 
9 *41:38 *141:A2 4.5 
*END

*D_NET *42 0.00137479
*CONN
*I *134:A2 I *D gf180mcu_fd_sc_mcu7t5v0__nor2_1
*I *155:Z O *D gf180mcu_fd_sc_mcu7t5v0__buf_1
*CAP
1 *134:A2 0.000687397
2 *155:Z 0.000687397
*RES
1 *155:Z *134:A2 14.2 
*END

*D_NET *43 0.00120672
*CONN
*I *134:A1 I *D gf180mcu_fd_sc_mcu7t5v0__nor2_1
*I *156:Z O *D gf180mcu_fd_sc_mcu7t5v0__buf_1
*CAP
1 *134:A1 0.000447567
2 *156:Z 0.000447567
3 *134:A1 *165:I 0
4 *134:A1 *46:20 0.000269715
5 cal_start *134:A1 3.3698e-05
6 *151:I *134:A1 8.16884e-06
*RES
1 *156:Z *134:A1 12.536 
*END

*D_NET *44 0.00399249
*CONN
*I *129:I I *D gf180mcu_fd_sc_mcu7t5v0__clkinv_1
*I *157:Z O *D gf180mcu_fd_sc_mcu7t5v0__buf_1
*CAP
1 *129:I 0.000293154
2 *157:Z 0.000293154
3 *129:I *166:I 0.00159637
4 cal_start *129:I 0.000599253
5 *131:A1 *129:I 4.67771e-06
6 *133:A2 *129:I 0.00116407
7 *157:I *129:I 4.18157e-05
*RES
1 *157:Z *129:I 25.072 
*END

*D_NET *45 0.000894117
*CONN
*I *142:A1 I *D gf180mcu_fd_sc_mcu7t5v0__nand2_1
*I *158:Z O *D gf180mcu_fd_sc_mcu7t5v0__buf_1
*CAP
1 *142:A1 0.00022803
2 *158:Z 0.00022803
3 *139:B *142:A1 0.000247057
4 *140:B *142:A1 0
5 *142:A2 *142:A1 0.000103002
6 *158:I *142:A1 3.93494e-05
7 *34:19 *142:A1 4.86488e-05
*RES
1 *158:Z *142:A1 19.872 
*END

*D_NET *46 0.0090366
*CONN
*I *149:RN I *D gf180mcu_fd_sc_mcu7t5v0__dffrnq_1
*I *147:RN I *D gf180mcu_fd_sc_mcu7t5v0__dffrnq_1
*I *148:RN I *D gf180mcu_fd_sc_mcu7t5v0__dffrnq_1
*I *159:Z O *D gf180mcu_fd_sc_mcu7t5v0__buf_1
*CAP
1 *149:RN 0.000220701
2 *147:RN 0
3 *148:RN 0.00096628
4 *159:Z 0.000407568
5 *46:20 0.00115315
6 *132:A1 *46:20 4.29477e-05
7 *134:A1 *46:20 0.000269715
8 *135:A4 *46:20 0.000355286
9 *138:B1 *148:RN 0.00110762
10 *139:A1 *46:20 0.000476483
11 *147:D *148:RN 0.00157143
12 *151:I *46:20 0.000102981
13 *157:I *148:RN 0.000444496
14 *159:I *46:20 0
15 *161:I *148:RN 3.13081e-05
16 *162:I *148:RN 6.00655e-05
17 *162:I *149:RN 0.000111048
18 *8:18 *148:RN 1.90865e-05
19 *8:18 *149:RN 1.65832e-05
20 *20:12 *148:RN 0.000254952
21 *27:22 *148:RN 0.000199988
22 *34:19 *46:20 0.000193241
23 *39:10 *148:RN 2.97086e-05
24 *39:29 *148:RN 5.23324e-05
25 *40:68 *149:RN 0.000949635
*RES
1 *159:Z *46:20 18.284 
2 *46:20 *148:RN 23.484 
3 *46:20 *147:RN 4.5 
4 *148:RN *149:RN 11.808 
*END

*D_NET *47 0.00770976
*CONN
*I *146:C I *D gf180mcu_fd_sc_mcu7t5v0__aoi211_1
*I *144:C I *D gf180mcu_fd_sc_mcu7t5v0__aoi211_1
*I *127:I I *D gf180mcu_fd_sc_mcu7t5v0__clkinv_1
*I *160:Z O *D gf180mcu_fd_sc_mcu7t5v0__buf_1
*CAP
1 *146:C 0.000568837
2 *144:C 0.000144983
3 *127:I 0.000513812
4 *160:Z 0.000515679
5 *47:19 0.000854833
6 *47:8 0.0011705
7 *141:A1 *47:8 0.000100949
8 *144:A2 *127:I 2.55631e-05
9 *144:A2 *144:C 2.39156e-06
10 *144:A2 *47:8 0.000614435
11 *144:A2 *47:19 1.49279e-05
12 *146:A1 *146:C 0.000449094
13 *146:A2 *127:I 0.000222329
14 *146:A2 *146:C 0.000234643
15 *146:A2 *47:19 0.000243466
16 *149:D *144:C 0.000879289
17 *149:CLK *47:8 0.000139186
18 *164:I *146:C 0.00019239
19 *31:12 *127:I 0.000363852
20 *39:55 *144:C 0.000388707
21 *39:55 *47:8 0
22 *40:68 *146:C 4.15512e-05
23 *41:38 *47:8 2.83332e-05
*RES
1 *160:Z *47:8 13.472 
2 *47:8 *127:I 13.056 
3 *47:8 *47:19 1.56 
4 *47:19 *144:C 11.808 
5 *47:19 *146:C 14.408 
*END

*D_NET *48 0.00621504
*CONN
*I *143:A1 I *D gf180mcu_fd_sc_mcu7t5v0__oai21_1
*I *165:I I *D gf180mcu_fd_sc_mcu7t5v0__buf_2
*I *130:ZN O *D gf180mcu_fd_sc_mcu7t5v0__nor3_2
*CAP
1 *143:A1 0.00112305
2 *165:I 0.000472087
3 *130:ZN 0.0004283
4 *48:10 0.00202344
5 cal_start *165:I 1.60338e-05
6 *132:A1 *143:A1 0
7 *132:A2 *143:A1 0.000169324
8 *134:A1 *165:I 0
9 *135:A4 *165:I 2.54619e-05
10 *135:A4 *48:10 2.20209e-06
11 *136:A2 *48:10 0.000359001
12 *137:A1 *48:10 6.77605e-06
13 *139:A1 *143:A1 0
14 *148:D *143:A1 0
15 *151:I *165:I 4.63426e-05
16 *157:I *143:A1 0
17 *159:I *165:I 0.000234715
18 *159:I *48:10 0.000618733
19 *23:10 *143:A1 9.8588e-06
20 *23:10 *165:I 0.00013182
21 *27:12 *48:10 8.13929e-05
22 *39:29 *143:A1 0
23 *41:8 *143:A1 0
24 *41:38 *143:A1 0.000466509
*RES
1 *130:ZN *48:10 13.992 
2 *48:10 *165:I 12.744 
3 *48:10 *143:A1 16.696 
*END

*D_NET *49 0.00365255
*CONN
*I *166:I I *D gf180mcu_fd_sc_mcu7t5v0__buf_2
*I *133:ZN O *D gf180mcu_fd_sc_mcu7t5v0__nor3_1
*CAP
1 *166:I 0.000300857
2 *133:ZN 0.000300857
3 cal_start *166:I 0.000149676
4 read_en *166:I 0.00130479
5 *129:I *166:I 0.00159637
*RES
1 *133:ZN *166:I 23.928 
*END
