*SPEF "ieee 1481-1999"
*DESIGN "signal_processor"
*DATE "00:06:45 Monday August 10, 2026"
*VENDOR "The OpenROAD Project"
*PROGRAM "OpenROAD"
*VERSION "26Q1-1024-gdcf36133a"
*DESIGN_FLOW "NAME_SCOPE LOCAL" "PIN_CAP NONE"
*DIVIDER /
*DELIMITER :
*BUS_DELIMITER []
*T_UNIT 1 NS
*C_UNIT 1 PF
*R_UNIT 1 OHM
*L_UNIT 1 HENRY

*NAME_MAP
*3 clk
*4 comp_raw
*5 dir
*6 jitter_flag
*7 latch_phase270
*8 latch_phase270_ack
*9 latch_phase90
*10 latch_phase90_ack
*11 move_en
*12 phase_state[0]
*13 phase_state[1]
*14 rst_n
*15 soft_rst_n
*16 votes_in_phase[0]
*17 votes_in_phase[1]
*18 votes_in_phase[2]
*19 votes_in_phase[3]
*20 votes_out_phase[0]
*21 votes_out_phase[1]
*22 votes_out_phase[2]
*23 votes_out_phase[3]
*24 _000_
*25 _001_
*26 _002_
*27 _003_
*28 _004_
*29 _005_
*30 _006_
*31 _007_
*32 _008_
*33 _009_
*34 _010_
*35 _011_
*36 _012_
*37 _013_
*38 _014_
*39 _015_
*40 _016_
*41 _017_
*42 _018_
*43 _019_
*44 _020_
*45 _021_
*46 _022_
*47 _023_
*48 _024_
*49 _025_
*50 _026_
*51 _027_
*52 _028_
*53 _029_
*54 _030_
*55 _031_
*56 _032_
*57 _033_
*58 _034_
*59 _035_
*60 _036_
*61 _037_
*62 _038_
*63 _039_
*64 _040_
*65 _041_
*66 _042_
*67 _043_
*68 _044_
*69 _045_
*70 _046_
*71 _047_
*72 _048_
*73 _049_
*74 _050_
*75 _051_
*76 _052_
*77 _053_
*78 _054_
*79 _055_
*80 _056_
*81 _057_
*82 _058_
*83 _059_
*84 _060_
*85 _061_
*86 _062_
*87 _063_
*88 _064_
*89 _065_
*90 _066_
*91 _067_
*92 _068_
*93 _069_
*94 _070_
*95 _071_
*96 _072_
*97 _073_
*98 _074_
*99 _075_
*100 _076_
*101 _077_
*102 _078_
*103 _079_
*104 _080_
*105 _081_
*106 _082_
*107 _083_
*108 _084_
*109 _085_
*110 _086_
*111 _087_
*112 _088_
*113 _089_
*114 _090_
*115 _091_
*116 _092_
*117 _093_
*118 _094_
*119 _095_
*120 _096_
*121 _097_
*122 _098_
*123 _099_
*124 _100_
*125 _101_
*126 _102_
*127 _103_
*128 _104_
*129 _105_
*130 _106_
*131 _107_
*132 clknet_0_clk
*133 clknet_3_0__leaf_clk
*134 clknet_3_1__leaf_clk
*135 clknet_3_2__leaf_clk
*136 clknet_3_3__leaf_clk
*137 clknet_3_4__leaf_clk
*138 clknet_3_5__leaf_clk
*139 clknet_3_6__leaf_clk
*140 clknet_3_7__leaf_clk
*141 cnt_in\[0\]
*142 cnt_in\[1\]
*143 cnt_in\[2\]
*144 cnt_in\[3\]
*145 cnt_out\[0\]
*146 cnt_out\[1\]
*147 cnt_out\[2\]
*148 cnt_out\[3\]
*149 comp_pipe\[0\]
*150 comp_pipe\[1\]
*151 comp_pipe\[2\]
*152 comp_pipe\[3\]
*153 cycle_count\[0\]
*154 cycle_count\[1\]
*155 cycle_count\[2\]
*156 cycle_count\[3\]
*157 net1
*158 net10
*159 net11
*160 net12
*161 net13
*162 net14
*163 net15
*164 net16
*165 net17
*166 net18
*167 net19
*168 net2
*169 net20
*170 net21
*171 net22
*172 net23
*173 net24
*174 net25
*175 net26
*176 net27
*177 net28
*178 net29
*179 net3
*180 net30
*181 net31
*182 net32
*183 net33
*184 net34
*185 net35
*186 net36
*187 net37
*188 net38
*189 net39
*190 net4
*191 net40
*192 net41
*193 net42
*194 net43
*195 net44
*196 net45
*197 net46
*198 net47
*199 net48
*200 net49
*201 net5
*202 net50
*203 net51
*204 net6
*205 net7
*206 net8
*207 net9
*208 s270_pipe\[0\]
*209 s270_pipe\[1\]
*210 s270_pipe\[2\]
*211 s270_pipe\[3\]
*212 s90
*213 s90_pipe\[0\]
*214 s90_pipe\[1\]
*215 s90_pipe\[2\]
*216 s90_pipe\[3\]
*217 s90_valid
*218 FILLER_0_104
*219 FILLER_0_138
*220 FILLER_0_172
*221 FILLER_0_176
*222 FILLER_0_196
*223 FILLER_0_2
*224 FILLER_0_206
*225 FILLER_0_208
*226 FILLER_0_36
*227 FILLER_0_44
*228 FILLER_0_48
*229 FILLER_0_50
*230 FILLER_0_59
*231 FILLER_0_67
*232 FILLER_0_70
*233 FILLER_10_101
*234 FILLER_10_107
*235 FILLER_10_125
*236 FILLER_10_141
*237 FILLER_10_145
*238 FILLER_10_177
*239 FILLER_10_179
*240 FILLER_10_2
*241 FILLER_10_215
*242 FILLER_10_217
*243 FILLER_10_224
*244 FILLER_10_34
*245 FILLER_10_37
*246 FILLER_11_104
*247 FILLER_11_120
*248 FILLER_11_134
*249 FILLER_11_142
*250 FILLER_11_2
*251 FILLER_11_212
*252 FILLER_11_216
*253 FILLER_11_66
*254 FILLER_11_72
*255 FILLER_12_101
*256 FILLER_12_107
*257 FILLER_12_111
*258 FILLER_12_113
*259 FILLER_12_148
*260 FILLER_12_177
*261 FILLER_12_2
*262 FILLER_12_34
*263 FILLER_12_37
*264 FILLER_13_104
*265 FILLER_13_112
*266 FILLER_13_139
*267 FILLER_13_2
*268 FILLER_13_207
*269 FILLER_13_209
*270 FILLER_13_220
*271 FILLER_13_224
*272 FILLER_13_66
*273 FILLER_13_72
*274 FILLER_14_101
*275 FILLER_14_107
*276 FILLER_14_114
*277 FILLER_14_122
*278 FILLER_14_174
*279 FILLER_14_2
*280 FILLER_14_211
*281 FILLER_14_219
*282 FILLER_14_223
*283 FILLER_14_34
*284 FILLER_14_37
*285 FILLER_15_139
*286 FILLER_15_165
*287 FILLER_15_2
*288 FILLER_15_201
*289 FILLER_15_203
*290 FILLER_15_209
*291 FILLER_15_212
*292 FILLER_15_216
*293 FILLER_15_66
*294 FILLER_15_72
*295 FILLER_15_88
*296 FILLER_15_96
*297 FILLER_16_101
*298 FILLER_16_107
*299 FILLER_16_115
*300 FILLER_16_117
*301 FILLER_16_124
*302 FILLER_16_177
*303 FILLER_16_2
*304 FILLER_16_34
*305 FILLER_16_37
*306 FILLER_17_104
*307 FILLER_17_120
*308 FILLER_17_151
*309 FILLER_17_190
*310 FILLER_17_2
*311 FILLER_17_202
*312 FILLER_17_209
*313 FILLER_17_212
*314 FILLER_17_220
*315 FILLER_17_224
*316 FILLER_17_66
*317 FILLER_17_72
*318 FILLER_18_101
*319 FILLER_18_107
*320 FILLER_18_115
*321 FILLER_18_162
*322 FILLER_18_182
*323 FILLER_18_2
*324 FILLER_18_214
*325 FILLER_18_216
*326 FILLER_18_34
*327 FILLER_18_37
*328 FILLER_19_104
*329 FILLER_19_120
*330 FILLER_19_122
*331 FILLER_19_135
*332 FILLER_19_139
*333 FILLER_19_142
*334 FILLER_19_175
*335 FILLER_19_183
*336 FILLER_19_187
*337 FILLER_19_189
*338 FILLER_19_198
*339 FILLER_19_2
*340 FILLER_19_202
*341 FILLER_19_209
*342 FILLER_19_212
*343 FILLER_19_220
*344 FILLER_19_224
*345 FILLER_19_66
*346 FILLER_19_72
*347 FILLER_1_136
*348 FILLER_1_142
*349 FILLER_1_158
*350 FILLER_1_162
*351 FILLER_1_2
*352 FILLER_1_206
*353 FILLER_1_212
*354 FILLER_1_216
*355 FILLER_1_66
*356 FILLER_1_72
*357 FILLER_20_101
*358 FILLER_20_107
*359 FILLER_20_174
*360 FILLER_20_177
*361 FILLER_20_185
*362 FILLER_20_189
*363 FILLER_20_2
*364 FILLER_20_34
*365 FILLER_20_37
*366 FILLER_21_132
*367 FILLER_21_142
*368 FILLER_21_155
*369 FILLER_21_174
*370 FILLER_21_198
*371 FILLER_21_2
*372 FILLER_21_202
*373 FILLER_21_209
*374 FILLER_21_212
*375 FILLER_21_216
*376 FILLER_21_66
*377 FILLER_21_72
*378 FILLER_21_88
*379 FILLER_21_96
*380 FILLER_22_102
*381 FILLER_22_104
*382 FILLER_22_107
*383 FILLER_22_139
*384 FILLER_22_177
*385 FILLER_22_181
*386 FILLER_22_2
*387 FILLER_22_224
*388 FILLER_22_34
*389 FILLER_22_37
*390 FILLER_22_69
*391 FILLER_22_85
*392 FILLER_22_89
*393 FILLER_22_98
*394 FILLER_23_139
*395 FILLER_23_142
*396 FILLER_23_150
*397 FILLER_23_158
*398 FILLER_23_2
*399 FILLER_23_66
*400 FILLER_23_72
*401 FILLER_23_88
*402 FILLER_24_107
*403 FILLER_24_124
*404 FILLER_24_140
*405 FILLER_24_177
*406 FILLER_24_187
*407 FILLER_24_2
*408 FILLER_24_222
*409 FILLER_24_224
*410 FILLER_24_34
*411 FILLER_24_37
*412 FILLER_24_69
*413 FILLER_25_115
*414 FILLER_25_119
*415 FILLER_25_128
*416 FILLER_25_136
*417 FILLER_25_176
*418 FILLER_25_184
*419 FILLER_25_2
*420 FILLER_25_209
*421 FILLER_25_212
*422 FILLER_25_220
*423 FILLER_25_224
*424 FILLER_25_66
*425 FILLER_25_72
*426 FILLER_25_80
*427 FILLER_26_177
*428 FILLER_26_179
*429 FILLER_26_2
*430 FILLER_26_222
*431 FILLER_26_224
*432 FILLER_26_34
*433 FILLER_26_37
*434 FILLER_26_69
*435 FILLER_26_77
*436 FILLER_27_106
*437 FILLER_27_127
*438 FILLER_27_139
*439 FILLER_27_142
*440 FILLER_27_158
*441 FILLER_27_2
*442 FILLER_27_212
*443 FILLER_27_216
*444 FILLER_27_66
*445 FILLER_28_101
*446 FILLER_28_123
*447 FILLER_28_127
*448 FILLER_28_129
*449 FILLER_28_172
*450 FILLER_28_174
*451 FILLER_28_177
*452 FILLER_28_181
*453 FILLER_28_2
*454 FILLER_28_224
*455 FILLER_28_34
*456 FILLER_28_37
*457 FILLER_28_53
*458 FILLER_28_61
*459 FILLER_28_65
*460 FILLER_29_2
*461 FILLER_29_220
*462 FILLER_29_224
*463 FILLER_29_34
*464 FILLER_29_50
*465 FILLER_29_58
*466 FILLER_2_101
*467 FILLER_2_107
*468 FILLER_2_139
*469 FILLER_2_2
*470 FILLER_2_34
*471 FILLER_2_37
*472 FILLER_30_115
*473 FILLER_30_153
*474 FILLER_30_173
*475 FILLER_30_2
*476 FILLER_30_34
*477 FILLER_30_37
*478 FILLER_30_53
*479 FILLER_30_61
*480 FILLER_31_124
*481 FILLER_31_132
*482 FILLER_31_138
*483 FILLER_31_146
*484 FILLER_31_148
*485 FILLER_31_157
*486 FILLER_31_161
*487 FILLER_31_180
*488 FILLER_31_184
*489 FILLER_31_191
*490 FILLER_31_193
*491 FILLER_31_2
*492 FILLER_31_202
*493 FILLER_31_206
*494 FILLER_31_208
*495 FILLER_31_36
*496 FILLER_31_40
*497 FILLER_31_47
*498 FILLER_31_63
*499 FILLER_31_67
*500 FILLER_31_70
*501 FILLER_3_100
*502 FILLER_3_102
*503 FILLER_3_137
*504 FILLER_3_139
*505 FILLER_3_142
*506 FILLER_3_2
*507 FILLER_3_203
*508 FILLER_3_207
*509 FILLER_3_209
*510 FILLER_3_212
*511 FILLER_3_216
*512 FILLER_3_66
*513 FILLER_3_72
*514 FILLER_3_88
*515 FILLER_3_96
*516 FILLER_4_119
*517 FILLER_4_127
*518 FILLER_4_129
*519 FILLER_4_164
*520 FILLER_4_166
*521 FILLER_4_177
*522 FILLER_4_179
*523 FILLER_4_2
*524 FILLER_4_34
*525 FILLER_4_37
*526 FILLER_5_125
*527 FILLER_5_129
*528 FILLER_5_190
*529 FILLER_5_192
*530 FILLER_5_2
*531 FILLER_5_209
*532 FILLER_5_220
*533 FILLER_5_224
*534 FILLER_5_66
*535 FILLER_5_72
*536 FILLER_5_88
*537 FILLER_5_90
*538 FILLER_6_107
*539 FILLER_6_170
*540 FILLER_6_177
*541 FILLER_6_2
*542 FILLER_6_34
*543 FILLER_6_37
*544 FILLER_6_69
*545 FILLER_6_85
*546 FILLER_6_93
*547 FILLER_7_139
*548 FILLER_7_142
*549 FILLER_7_150
*550 FILLER_7_2
*551 FILLER_7_66
*552 FILLER_7_72
*553 FILLER_7_88
*554 FILLER_8_142
*555 FILLER_8_150
*556 FILLER_8_154
*557 FILLER_8_2
*558 FILLER_8_34
*559 FILLER_8_37
*560 FILLER_8_69
*561 FILLER_8_85
*562 FILLER_8_93
*563 FILLER_8_95
*564 FILLER_9_132
*565 FILLER_9_134
*566 FILLER_9_139
*567 FILLER_9_142
*568 FILLER_9_146
*569 FILLER_9_2
*570 FILLER_9_207
*571 FILLER_9_209
*572 FILLER_9_212
*573 FILLER_9_220
*574 FILLER_9_224
*575 FILLER_9_66
*576 FILLER_9_72
*577 FILLER_9_80
*578 FILLER_9_84
*579 PHY_EDGE_ROW_0_Left_32
*580 PHY_EDGE_ROW_0_Right_0
*581 PHY_EDGE_ROW_10_Left_42
*582 PHY_EDGE_ROW_10_Right_10
*583 PHY_EDGE_ROW_11_Left_43
*584 PHY_EDGE_ROW_11_Right_11
*585 PHY_EDGE_ROW_12_Left_44
*586 PHY_EDGE_ROW_12_Right_12
*587 PHY_EDGE_ROW_13_Left_45
*588 PHY_EDGE_ROW_13_Right_13
*589 PHY_EDGE_ROW_14_Left_46
*590 PHY_EDGE_ROW_14_Right_14
*591 PHY_EDGE_ROW_15_Left_47
*592 PHY_EDGE_ROW_15_Right_15
*593 PHY_EDGE_ROW_16_Left_48
*594 PHY_EDGE_ROW_16_Right_16
*595 PHY_EDGE_ROW_17_Left_49
*596 PHY_EDGE_ROW_17_Right_17
*597 PHY_EDGE_ROW_18_Left_50
*598 PHY_EDGE_ROW_18_Right_18
*599 PHY_EDGE_ROW_19_Left_51
*600 PHY_EDGE_ROW_19_Right_19
*601 PHY_EDGE_ROW_1_Left_33
*602 PHY_EDGE_ROW_1_Right_1
*603 PHY_EDGE_ROW_20_Left_52
*604 PHY_EDGE_ROW_20_Right_20
*605 PHY_EDGE_ROW_21_Left_53
*606 PHY_EDGE_ROW_21_Right_21
*607 PHY_EDGE_ROW_22_Left_54
*608 PHY_EDGE_ROW_22_Right_22
*609 PHY_EDGE_ROW_23_Left_55
*610 PHY_EDGE_ROW_23_Right_23
*611 PHY_EDGE_ROW_24_Left_56
*612 PHY_EDGE_ROW_24_Right_24
*613 PHY_EDGE_ROW_25_Left_57
*614 PHY_EDGE_ROW_25_Right_25
*615 PHY_EDGE_ROW_26_Left_58
*616 PHY_EDGE_ROW_26_Right_26
*617 PHY_EDGE_ROW_27_Left_59
*618 PHY_EDGE_ROW_27_Right_27
*619 PHY_EDGE_ROW_28_Left_60
*620 PHY_EDGE_ROW_28_Right_28
*621 PHY_EDGE_ROW_29_Left_61
*622 PHY_EDGE_ROW_29_Right_29
*623 PHY_EDGE_ROW_2_Left_34
*624 PHY_EDGE_ROW_2_Right_2
*625 PHY_EDGE_ROW_30_Left_62
*626 PHY_EDGE_ROW_30_Right_30
*627 PHY_EDGE_ROW_31_Left_63
*628 PHY_EDGE_ROW_31_Right_31
*629 PHY_EDGE_ROW_3_Left_35
*630 PHY_EDGE_ROW_3_Right_3
*631 PHY_EDGE_ROW_4_Left_36
*632 PHY_EDGE_ROW_4_Right_4
*633 PHY_EDGE_ROW_5_Left_37
*634 PHY_EDGE_ROW_5_Right_5
*635 PHY_EDGE_ROW_6_Left_38
*636 PHY_EDGE_ROW_6_Right_6
*637 PHY_EDGE_ROW_7_Left_39
*638 PHY_EDGE_ROW_7_Right_7
*639 PHY_EDGE_ROW_8_Left_40
*640 PHY_EDGE_ROW_8_Right_8
*641 PHY_EDGE_ROW_9_Left_41
*642 PHY_EDGE_ROW_9_Right_9
*643 TAP_TAPCELL_ROW_0_64
*644 TAP_TAPCELL_ROW_0_65
*645 TAP_TAPCELL_ROW_0_66
*646 TAP_TAPCELL_ROW_0_67
*647 TAP_TAPCELL_ROW_0_68
*648 TAP_TAPCELL_ROW_0_69
*649 TAP_TAPCELL_ROW_10_97
*650 TAP_TAPCELL_ROW_10_98
*651 TAP_TAPCELL_ROW_10_99
*652 TAP_TAPCELL_ROW_11_100
*653 TAP_TAPCELL_ROW_11_101
*654 TAP_TAPCELL_ROW_11_102
*655 TAP_TAPCELL_ROW_12_103
*656 TAP_TAPCELL_ROW_12_104
*657 TAP_TAPCELL_ROW_12_105
*658 TAP_TAPCELL_ROW_13_106
*659 TAP_TAPCELL_ROW_13_107
*660 TAP_TAPCELL_ROW_13_108
*661 TAP_TAPCELL_ROW_14_109
*662 TAP_TAPCELL_ROW_14_110
*663 TAP_TAPCELL_ROW_14_111
*664 TAP_TAPCELL_ROW_15_112
*665 TAP_TAPCELL_ROW_15_113
*666 TAP_TAPCELL_ROW_15_114
*667 TAP_TAPCELL_ROW_16_115
*668 TAP_TAPCELL_ROW_16_116
*669 TAP_TAPCELL_ROW_16_117
*670 TAP_TAPCELL_ROW_17_118
*671 TAP_TAPCELL_ROW_17_119
*672 TAP_TAPCELL_ROW_17_120
*673 TAP_TAPCELL_ROW_18_121
*674 TAP_TAPCELL_ROW_18_122
*675 TAP_TAPCELL_ROW_18_123
*676 TAP_TAPCELL_ROW_19_124
*677 TAP_TAPCELL_ROW_19_125
*678 TAP_TAPCELL_ROW_19_126
*679 TAP_TAPCELL_ROW_1_70
*680 TAP_TAPCELL_ROW_1_71
*681 TAP_TAPCELL_ROW_1_72
*682 TAP_TAPCELL_ROW_20_127
*683 TAP_TAPCELL_ROW_20_128
*684 TAP_TAPCELL_ROW_20_129
*685 TAP_TAPCELL_ROW_21_130
*686 TAP_TAPCELL_ROW_21_131
*687 TAP_TAPCELL_ROW_21_132
*688 TAP_TAPCELL_ROW_22_133
*689 TAP_TAPCELL_ROW_22_134
*690 TAP_TAPCELL_ROW_22_135
*691 TAP_TAPCELL_ROW_23_136
*692 TAP_TAPCELL_ROW_23_137
*693 TAP_TAPCELL_ROW_23_138
*694 TAP_TAPCELL_ROW_24_139
*695 TAP_TAPCELL_ROW_24_140
*696 TAP_TAPCELL_ROW_24_141
*697 TAP_TAPCELL_ROW_25_142
*698 TAP_TAPCELL_ROW_25_143
*699 TAP_TAPCELL_ROW_25_144
*700 TAP_TAPCELL_ROW_26_145
*701 TAP_TAPCELL_ROW_26_146
*702 TAP_TAPCELL_ROW_26_147
*703 TAP_TAPCELL_ROW_27_148
*704 TAP_TAPCELL_ROW_27_149
*705 TAP_TAPCELL_ROW_27_150
*706 TAP_TAPCELL_ROW_28_151
*707 TAP_TAPCELL_ROW_28_152
*708 TAP_TAPCELL_ROW_28_153
*709 TAP_TAPCELL_ROW_29_154
*710 TAP_TAPCELL_ROW_29_155
*711 TAP_TAPCELL_ROW_29_156
*712 TAP_TAPCELL_ROW_2_73
*713 TAP_TAPCELL_ROW_2_74
*714 TAP_TAPCELL_ROW_2_75
*715 TAP_TAPCELL_ROW_30_157
*716 TAP_TAPCELL_ROW_30_158
*717 TAP_TAPCELL_ROW_30_159
*718 TAP_TAPCELL_ROW_31_160
*719 TAP_TAPCELL_ROW_31_161
*720 TAP_TAPCELL_ROW_31_162
*721 TAP_TAPCELL_ROW_31_163
*722 TAP_TAPCELL_ROW_31_164
*723 TAP_TAPCELL_ROW_31_165
*724 TAP_TAPCELL_ROW_3_76
*725 TAP_TAPCELL_ROW_3_77
*726 TAP_TAPCELL_ROW_3_78
*727 TAP_TAPCELL_ROW_4_79
*728 TAP_TAPCELL_ROW_4_80
*729 TAP_TAPCELL_ROW_4_81
*730 TAP_TAPCELL_ROW_5_82
*731 TAP_TAPCELL_ROW_5_83
*732 TAP_TAPCELL_ROW_5_84
*733 TAP_TAPCELL_ROW_6_85
*734 TAP_TAPCELL_ROW_6_86
*735 TAP_TAPCELL_ROW_6_87
*736 TAP_TAPCELL_ROW_7_88
*737 TAP_TAPCELL_ROW_7_89
*738 TAP_TAPCELL_ROW_7_90
*739 TAP_TAPCELL_ROW_8_91
*740 TAP_TAPCELL_ROW_8_92
*741 TAP_TAPCELL_ROW_8_93
*742 TAP_TAPCELL_ROW_9_94
*743 TAP_TAPCELL_ROW_9_95
*744 TAP_TAPCELL_ROW_9_96
*745 _108_
*746 _109_
*747 _110_
*748 _111_
*749 _112_
*750 _113_
*751 _114_
*752 _115_
*753 _116_
*754 _117_
*755 _118_
*756 _119_
*757 _120_
*758 _121_
*759 _122_
*760 _123_
*761 _124_
*762 _125_
*763 _126_
*764 _127_
*765 _128_
*766 _129_
*767 _130_
*768 _131_
*769 _132_
*770 _133_
*771 _134_
*772 _135_
*773 _136_
*774 _137_
*775 _138_
*776 _139_
*777 _140_
*778 _141_
*779 _142_
*780 _143_
*781 _144_
*782 _145_
*783 _146_
*784 _147_
*785 _148_
*786 _149_
*787 _150_
*788 _151_
*789 _152_
*790 _153_
*791 _154_
*792 _155_
*793 _156_
*794 _157_
*795 _158_
*796 _159_
*797 _160_
*798 _161_
*799 _162_
*800 _163_
*801 _164_
*802 _165_
*803 _166_
*804 _167_
*805 _168_
*806 _169_
*807 _170_
*808 _171_
*809 _172_
*810 _173_
*811 _174_
*812 _175_
*813 _176_
*814 _177_
*815 _178_
*816 _179_
*817 _180_
*818 _181_
*819 _182_
*820 _183_
*821 _184_
*822 _185_
*823 _186_
*824 _187_
*825 _188_
*826 _189_
*827 _190_
*828 _191_
*829 _192_
*830 _193_
*831 _194_
*832 _195_
*833 _196_
*834 _197_
*835 _198_
*836 _199_
*837 _200_
*838 _201_
*839 _202_
*840 _203_
*841 _204_
*842 _205_
*843 _206_
*844 _207_
*845 _208_
*846 _209_
*847 _210_
*848 _211_
*849 _212_
*850 _213_
*851 _214_
*852 _215_
*853 _216_
*854 _217_
*855 _218_
*856 _219_
*857 _220_
*858 _221_
*859 _222_
*860 _223_
*861 _224_
*862 _225_
*863 _226_
*864 _227_
*865 _228_
*866 _229_
*867 _230_
*868 _231_
*869 _232_
*870 _233_
*871 _234_
*872 _235_
*873 _236_
*874 _237_
*875 _238_
*876 _239_
*877 _240_
*878 _241_
*879 _242_
*880 _243_
*881 _244_
*882 _245_
*883 _246_
*884 _247_
*885 _248_
*886 _249_
*887 _250_
*888 _251_
*889 _252_
*890 _253_
*891 _254_
*892 _255_
*893 _256_
*894 clkbuf_0_clk
*895 clkbuf_3_0__f_clk
*896 clkbuf_3_1__f_clk
*897 clkbuf_3_2__f_clk
*898 clkbuf_3_3__f_clk
*899 clkbuf_3_4__f_clk
*900 clkbuf_3_5__f_clk
*901 clkbuf_3_6__f_clk
*902 clkbuf_3_7__f_clk
*903 clkload0
*904 clkload1
*905 clkload2
*906 clkload3
*907 clkload4
*908 clkload5
*909 clkload6
*910 fanout21
*911 fanout27
*912 fanout29
*913 fanout33
*914 fanout37
*915 fanout41
*916 fanout45
*917 fanout49
*918 input1
*919 input2
*920 input3
*921 input4
*922 input5
*923 load_slew23
*924 load_slew25
*925 load_slew26
*926 load_slew28
*927 load_slew30
*928 load_slew31
*929 load_slew34
*930 load_slew36
*931 load_slew38
*932 load_slew39
*933 load_slew40
*934 load_slew42
*935 load_slew43
*936 load_slew44
*937 load_slew46
*938 load_slew47
*939 load_slew48
*940 output10
*941 output11
*942 output12
*943 output13
*944 output14
*945 output15
*946 output16
*947 output17
*948 output18
*949 output19
*950 output20
*951 output6
*952 output7
*953 output8
*954 output9
*955 wire22
*956 wire24
*957 wire32
*958 wire35
*959 wire50
*960 wire51

*PORTS
clk I
comp_raw I
dir O
jitter_flag O
latch_phase270 I
latch_phase270_ack O
latch_phase90 I
latch_phase90_ack O
move_en O
phase_state[0] O
phase_state[1] O
rst_n I
soft_rst_n I
votes_in_phase[0] O
votes_in_phase[1] O
votes_in_phase[2] O
votes_in_phase[3] O
votes_out_phase[0] O
votes_out_phase[1] O
votes_out_phase[2] O
votes_out_phase[3] O

*D_NET *3 0.01607
*CONN
*P clk I
*I *894:I I *D gf180mcu_fd_sc_mcu7t5v0__clkbuf_16
*CAP
1 clk 0.00457431
2 *894:I 9.8202e-05
3 *3:22 0.00179548
4 *3:12 0.00627159
5 *894:I *790:A2 4.10573e-06
6 *894:I *134:21 3.03076e-06
7 *894:I *216:14 0
8 *894:I *217:8 0.000104542
9 *3:12 *754:A2 0
10 *3:12 *758:A2 0.000326841
11 *3:12 *887:D 0
12 *3:12 *890:RN 0.000152316
13 *3:12 *199:8 0.000666301
14 *3:12 *199:10 0.000137017
15 *3:12 *203:19 0
16 *3:12 *203:42 0
17 *3:22 *810:A2 0.000249521
18 *3:22 *813:A1 4.18157e-05
19 *3:22 *813:A2 0.000147211
20 *3:22 *880:D 0.000345736
21 *3:22 *893:CLK 0.000159505
22 *3:22 *914:I 0.000844518
23 *3:22 *132:33 0
24 *3:22 *132:37 0
25 *3:22 *132:48 0
26 *3:22 *132:53 0
27 *3:22 *134:21 2.86953e-05
28 *3:22 *176:42 0.000119299
29 *3:22 *216:14 0
*RES
1 clk *3:12 48.26 
2 *3:12 *3:22 16.0049 
3 *3:22 *894:I 5.34314 
*END

*D_NET *4 0.00236554
*CONN
*P comp_raw I
*I *918:I I *D gf180mcu_fd_sc_mcu7t5v0__buf_1
*CAP
1 comp_raw 0.000897951
2 *918:I 0.000897951
3 *918:I latch_phase270_ack 0
4 *918:I votes_out_phase[3] 0.000500772
5 *918:I *883:RN 3.4596e-05
6 *918:I *950:I 3.42651e-05
*RES
1 comp_raw *918:I 16.852 
*END

*D_NET *5 0.00167105
*CONN
*P dir O
*I *951:Z O *D gf180mcu_fd_sc_mcu7t5v0__buf_2
*CAP
1 dir 0.000835527
2 *951:Z 0.000835527
*RES
1 *951:Z dir 11.416 
*END

*D_NET *6 0.00174989
*CONN
*P jitter_flag O
*I *952:Z O *D gf180mcu_fd_sc_mcu7t5v0__buf_2
*CAP
1 jitter_flag 0.000874946
2 *952:Z 0.000874946
*RES
1 *952:Z jitter_flag 16.228 
*END

*D_NET *7 0.00200056
*CONN
*P latch_phase270 I
*I *919:I I *D gf180mcu_fd_sc_mcu7t5v0__buf_1
*CAP
1 latch_phase270 0.00100028
2 *919:I 0.00100028
*RES
1 latch_phase270 *919:I 13.704 
*END

*D_NET *8 0.00204905
*CONN
*P latch_phase270_ack O
*I *953:Z O *D gf180mcu_fd_sc_mcu7t5v0__buf_2
*CAP
1 latch_phase270_ack 0.00102453
2 *953:Z 0.00102453
3 *918:I latch_phase270_ack 0
*RES
1 *953:Z latch_phase270_ack 13.912 
*END

*D_NET *9 0.00239037
*CONN
*P latch_phase90 I
*I *920:I I *D gf180mcu_fd_sc_mcu7t5v0__buf_1
*CAP
1 latch_phase90 0.00117908
2 *920:I 0.00117908
3 *920:I *757:A2 3.22108e-05
*RES
1 latch_phase90 *920:I 14.952 
*END

*D_NET *10 0.00189378
*CONN
*P latch_phase90_ack O
*I *954:Z O *D gf180mcu_fd_sc_mcu7t5v0__buf_2
*CAP
1 latch_phase90_ack 0.000946891
2 *954:Z 0.000946891
*RES
1 *954:Z latch_phase90_ack 12.144 
*END

*D_NET *11 0.00167105
*CONN
*P move_en O
*I *940:Z O *D gf180mcu_fd_sc_mcu7t5v0__buf_2
*CAP
1 move_en 0.000835527
2 *940:Z 0.000835527
*RES
1 *940:Z move_en 11.416 
*END

*D_NET *12 0.00179822
*CONN
*P phase_state[0] O
*I *941:Z O *D gf180mcu_fd_sc_mcu7t5v0__buf_2
*CAP
1 phase_state[0] 0.000682456
2 *941:Z 0.000682456
3 phase_state[0] *929:I 0.000178541
4 phase_state[0] *159:10 0.000254761
*RES
1 *941:Z phase_state[0] 14.772 
*END

*D_NET *13 0.00163632
*CONN
*P phase_state[1] O
*I *942:Z O *D gf180mcu_fd_sc_mcu7t5v0__buf_2
*CAP
1 phase_state[1] 0.000755318
2 *942:Z 0.000755318
3 phase_state[1] *842:A1 0.000125685
*RES
1 *942:Z phase_state[1] 14.772 
*END

*D_NET *14 0.00181474
*CONN
*P rst_n I
*I *921:I I *D gf180mcu_fd_sc_mcu7t5v0__buf_1
*CAP
1 rst_n 0.000907371
2 *921:I 0.000907371
*RES
1 rst_n *921:I 11.936 
*END

*D_NET *15 0.00191349
*CONN
*P soft_rst_n I
*I *922:I I *D gf180mcu_fd_sc_mcu7t5v0__buf_1
*CAP
1 soft_rst_n 0.000956747
2 *922:I 0.000956747
*RES
1 soft_rst_n *922:I 12.456 
*END

*D_NET *16 0.00118554
*CONN
*P votes_in_phase[0] O
*I *943:Z O *D gf180mcu_fd_sc_mcu7t5v0__buf_2
*CAP
1 votes_in_phase[0] 0.000504932
2 *943:Z 0.000504932
3 votes_in_phase[0] *161:10 6.57935e-06
4 votes_in_phase[0] *174:31 0.000169099
*RES
1 *943:Z votes_in_phase[0] 13.524 
*END

*D_NET *17 0.000750982
*CONN
*P votes_in_phase[1] O
*I *944:Z O *D gf180mcu_fd_sc_mcu7t5v0__buf_2
*CAP
1 votes_in_phase[1] 0.000375491
2 *944:Z 0.000375491
3 votes_in_phase[1] *162:10 0
*RES
1 *944:Z votes_in_phase[1] 12.38 
*END

*D_NET *18 0.00143223
*CONN
*P votes_in_phase[2] O
*I *945:Z O *D gf180mcu_fd_sc_mcu7t5v0__buf_2
*CAP
1 votes_in_phase[2] 0.000504699
2 *945:Z 0.000504699
3 votes_in_phase[2] *163:10 0.000422833
4 votes_in_phase[2] *174:55 0
*RES
1 *945:Z votes_in_phase[2] 13.524 
*END

*D_NET *19 0.00129608
*CONN
*P votes_in_phase[3] O
*I *946:Z O *D gf180mcu_fd_sc_mcu7t5v0__buf_2
*CAP
1 votes_in_phase[3] 0.000507832
2 *946:Z 0.000507832
3 votes_in_phase[3] *861:RN 1.43055e-05
4 votes_in_phase[3] *164:10 0.00026611
*RES
1 *946:Z votes_in_phase[3] 13.316 
*END

*D_NET *20 0.00104954
*CONN
*P votes_out_phase[0] O
*I *947:Z O *D gf180mcu_fd_sc_mcu7t5v0__buf_2
*CAP
1 votes_out_phase[0] 0.000493031
2 *947:Z 0.000493031
3 votes_out_phase[0] *862:RN 4.21219e-05
4 votes_out_phase[0] *165:8 2.13536e-05
*RES
1 *947:Z votes_out_phase[0] 13.108 
*END

*D_NET *21 0.0012294
*CONN
*P votes_out_phase[1] O
*I *948:Z O *D gf180mcu_fd_sc_mcu7t5v0__buf_2
*CAP
1 votes_out_phase[1] 0.000480718
2 *948:Z 0.000480718
3 votes_out_phase[1] *862:RN 0.00026796
*RES
1 *948:Z votes_out_phase[1] 13.108 
*END

*D_NET *22 0.000941146
*CONN
*P votes_out_phase[2] O
*I *949:Z O *D gf180mcu_fd_sc_mcu7t5v0__buf_2
*CAP
1 votes_out_phase[2] 0.000409451
2 *949:Z 0.000409451
3 votes_out_phase[2] *862:RN 0.000122244
*RES
1 *949:Z votes_out_phase[2] 12.692 
*END

*D_NET *23 0.00215969
*CONN
*P votes_out_phase[3] O
*I *950:Z O *D gf180mcu_fd_sc_mcu7t5v0__buf_2
*CAP
1 votes_out_phase[3] 0.000433539
2 *950:Z 0.000433539
3 votes_out_phase[3] *883:RN 0.000212654
4 votes_out_phase[3] *950:I 0.000579191
5 *918:I votes_out_phase[3] 0.000500772
*RES
1 *950:Z votes_out_phase[3] 14.148 
*END

*D_NET *24 0.00333167
*CONN
*I *882:D I *D gf180mcu_fd_sc_mcu7t5v0__dffrnq_1
*I *761:Z O *D gf180mcu_fd_sc_mcu7t5v0__and2_1
*CAP
1 *882:D 0.000457428
2 *761:Z 0.000457428
3 *882:D *761:A1 0.000173912
4 *882:D *763:A1 0.000500761
5 *882:D *763:A2 6.3258e-05
6 *882:D *785:A2 2.08795e-05
7 *882:D *785:B 9.11499e-05
8 *882:D *883:CLK 0.00107862
9 *882:D *885:RN 4.53894e-05
10 *882:D *139:20 0.000406983
11 *882:D *140:6 6.30895e-06
12 *882:D *140:39 2.16732e-05
13 *882:D *140:50 7.87395e-06
*RES
1 *761:Z *882:D 24.24 
*END

*D_NET *25 0.000590128
*CONN
*I *883:D I *D gf180mcu_fd_sc_mcu7t5v0__dffrnq_1
*I *762:Z O *D gf180mcu_fd_sc_mcu7t5v0__and2_1
*CAP
1 *883:D 0.000277821
2 *762:Z 0.000277821
3 *883:D *753:A2 2.32529e-05
4 *883:D *881:D 0
5 *883:D *883:CLK 1.12327e-05
6 *883:D *885:RN 0
*RES
1 *762:Z *883:D 11.08 
*END

*D_NET *26 0.00263882
*CONN
*I *884:D I *D gf180mcu_fd_sc_mcu7t5v0__dffrnq_1
*I *763:Z O *D gf180mcu_fd_sc_mcu7t5v0__and2_1
*CAP
1 *884:D 0.000950219
2 *763:Z 0.000950219
3 *884:D *881:D 0
4 *884:D *885:RN 0.000653284
5 *884:D *915:I 8.5094e-05
*RES
1 *763:Z *884:D 15.656 
*END

*D_NET *27 0.00105547
*CONN
*I *885:D I *D gf180mcu_fd_sc_mcu7t5v0__dffrnq_1
*I *764:Z O *D gf180mcu_fd_sc_mcu7t5v0__and2_1
*CAP
1 *885:D 0.000338867
2 *764:Z 0.000338867
3 *885:D *815:A1 0.000134054
4 *885:D *874:CLK 7.87395e-06
5 *885:D *132:114 0.000131098
6 *885:D *132:123 3.29501e-05
7 *885:D *140:16 7.17602e-05
8 *885:D *211:26 0
*RES
1 *764:Z *885:D 12.432 
*END

*D_NET *28 0.00289308
*CONN
*I *881:D I *D gf180mcu_fd_sc_mcu7t5v0__dffrnq_1
*I *765:Z O *D gf180mcu_fd_sc_mcu7t5v0__and2_1
*CAP
1 *881:D 0.000364219
2 *765:Z 0.000364219
3 *881:D *753:A2 0.000317668
4 *881:D *762:A1 0.00109524
5 *881:D *885:RN 0.00065147
6 *881:D *195:10 0.000100262
7 *883:D *881:D 0
8 *884:D *881:D 0
*RES
1 *765:Z *881:D 23.408 
*END

*D_NET *29 0.00324187
*CONN
*I *880:D I *D gf180mcu_fd_sc_mcu7t5v0__dffrnq_1
*I *752:Z O *D gf180mcu_fd_sc_mcu7t5v0__and2_1
*CAP
1 *880:D 0.000623017
2 *752:Z 0.000623017
3 *880:D *880:CLK 0
4 *880:D *893:CLK 9.85012e-05
5 *880:D *914:I 0.00127564
6 *880:D *939:I 0.000121868
7 *880:D *176:38 5.15285e-05
8 *880:D *196:10 0.000102557
9 *3:22 *880:D 0.000345736
*RES
1 *752:Z *880:D 16.28 
*END

*D_NET *30 0.00100162
*CONN
*I *890:D I *D gf180mcu_fd_sc_mcu7t5v0__dffrnq_1
*I *753:Z O *D gf180mcu_fd_sc_mcu7t5v0__and2_1
*CAP
1 *890:D 0.000392159
2 *753:Z 0.000392159
3 *890:D *754:A1 0
4 *890:D *886:D 0
5 *890:D *890:CLK 0.000215256
6 *890:D *891:D 2.04597e-06
*RES
1 *753:Z *890:D 11.912 
*END

*D_NET *31 0.00117951
*CONN
*I *891:D I *D gf180mcu_fd_sc_mcu7t5v0__dffrnq_1
*I *754:Z O *D gf180mcu_fd_sc_mcu7t5v0__and2_1
*CAP
1 *891:D 0.000148645
2 *754:Z 0.000148645
3 *891:D *754:A2 5.39368e-06
4 *891:D *886:D 3.22108e-05
5 *891:D *890:CLK 0.000438819
6 *891:D *917:I 0.000120236
7 *891:D *138:43 0.00028351
8 *890:D *891:D 2.04597e-06
*RES
1 *754:Z *891:D 20.288 
*END

*D_NET *32 0.000468776
*CONN
*I *892:D I *D gf180mcu_fd_sc_mcu7t5v0__dffrnq_1
*I *755:Z O *D gf180mcu_fd_sc_mcu7t5v0__and2_1
*CAP
1 *892:D 0.000186437
2 *755:Z 0.000186437
3 *892:D *755:A2 0
4 *892:D *960:I 9.41125e-05
5 *892:D *138:32 1.78817e-06
*RES
1 *755:Z *892:D 10.456 
*END

*D_NET *33 0.000505633
*CONN
*I *893:D I *D gf180mcu_fd_sc_mcu7t5v0__dffrnq_1
*I *756:Z O *D gf180mcu_fd_sc_mcu7t5v0__and2_1
*CAP
1 *893:D 0.000174657
2 *756:Z 0.000174657
3 *893:D *756:A2 0.000156319
4 *893:D *140:16 0
*RES
1 *756:Z *893:D 10.456 
*END

*D_NET *34 0.00218047
*CONN
*I *886:D I *D gf180mcu_fd_sc_mcu7t5v0__dffrnq_1
*I *757:Z O *D gf180mcu_fd_sc_mcu7t5v0__and2_1
*CAP
1 *886:D 0.000832243
2 *757:Z 0.000832243
3 *886:D *757:A1 1.78817e-06
4 *886:D *886:CLK 2.73715e-06
5 *886:D *911:I 0.000479251
6 *886:D *176:14 0
7 *890:D *886:D 0
8 *891:D *886:D 3.22108e-05
*RES
1 *757:Z *886:D 14.824 
*END

*D_NET *35 0.00115597
*CONN
*I *887:D I *D gf180mcu_fd_sc_mcu7t5v0__dffrnq_1
*I *758:Z O *D gf180mcu_fd_sc_mcu7t5v0__and2_1
*CAP
1 *887:D 0.000462125
2 *758:Z 0.000462125
3 *887:D *886:CLK 6.41811e-05
4 *887:D *887:CLK 9.56679e-05
5 *887:D *137:18 7.18709e-05
6 *3:12 *887:D 0
*RES
1 *758:Z *887:D 21.744 
*END

*D_NET *36 0.00176256
*CONN
*I *888:D I *D gf180mcu_fd_sc_mcu7t5v0__dffrnq_1
*I *759:Z O *D gf180mcu_fd_sc_mcu7t5v0__and2_1
*CAP
1 *888:D 0.000563594
2 *759:Z 0.000563594
3 *888:D *759:A2 5.60123e-05
4 *888:D *137:10 0.000579362
*RES
1 *759:Z *888:D 14.096 
*END

*D_NET *37 0.00298541
*CONN
*I *889:D I *D gf180mcu_fd_sc_mcu7t5v0__dffrnq_1
*I *760:Z O *D gf180mcu_fd_sc_mcu7t5v0__and2_1
*CAP
1 *889:D 0.00096642
2 *760:Z 0.00096642
3 *889:D *752:A1 0.000729296
4 *889:D *760:A1 0
5 *889:D *873:CLK 7.87395e-06
6 *889:D *914:I 0.000170473
7 *889:D *137:53 0.000144927
8 *889:D *197:10 0
*RES
1 *760:Z *889:D 26.008 
*END

*D_NET *38 0.00166039
*CONN
*I *864:D I *D gf180mcu_fd_sc_mcu7t5v0__dffrnq_1
*I *782:ZN O *D gf180mcu_fd_sc_mcu7t5v0__oai21_1
*CAP
1 *864:D 0.000643571
2 *782:ZN 0.000643571
3 *864:D *761:A1 4.9736e-05
4 *864:D *782:A1 0.000243589
5 *864:D *139:6 7.992e-05
6 *864:D *152:14 0
*RES
1 *782:ZN *864:D 22.784 
*END

*D_NET *39 0.000783828
*CONN
*I *865:D I *D gf180mcu_fd_sc_mcu7t5v0__dffrnq_1
*I *785:ZN O *D gf180mcu_fd_sc_mcu7t5v0__oai21_1
*CAP
1 *865:D 0.000203532
2 *785:ZN 0.000203532
3 *865:D *785:A1 0
4 *865:D *785:A2 0.000328552
5 *865:D *883:CLK 1.71326e-05
6 *865:D *139:20 3.10787e-05
*RES
1 *785:ZN *865:D 10.872 
*END

*D_NET *40 0.00163853
*CONN
*I *866:D I *D gf180mcu_fd_sc_mcu7t5v0__dffrnq_1
*I *788:ZN O *D gf180mcu_fd_sc_mcu7t5v0__oai21_1
*CAP
1 *866:D 0.000244233
2 *788:ZN 0.000244233
3 *866:D *788:A1 0.000201707
4 *866:D *788:B 4.67771e-06
5 *866:D *866:CLK 8.75081e-05
6 *866:D *182:30 3.49662e-05
7 *866:D *191:12 0.000283521
8 *866:D *191:22 0.000537687
*RES
1 *788:ZN *866:D 21.12 
*END

*D_NET *41 0.0011601
*CONN
*I *867:D I *D gf180mcu_fd_sc_mcu7t5v0__dffrnq_1
*I *791:ZN O *D gf180mcu_fd_sc_mcu7t5v0__nor2_1
*CAP
1 *867:D 0.000317415
2 *791:ZN 0.000317415
3 *867:D *866:CLK 0
4 *867:D *867:CLK 0.00052527
*RES
1 *791:ZN *867:D 20.6 
*END

*D_NET *42 0.00173458
*CONN
*I *868:D I *D gf180mcu_fd_sc_mcu7t5v0__dffrnq_1
*I *796:ZN O *D gf180mcu_fd_sc_mcu7t5v0__nor2_1
*CAP
1 *868:D 0.000643825
2 *796:ZN 0.000643825
3 *868:D *745:I 0
4 *868:D *771:A1 0.000110334
5 *868:D *868:CLK 0.0002308
6 *868:D *904:I 5.60123e-05
7 *868:D *956:I 2.38656e-05
8 *868:D *69:12 0
9 *868:D *125:6 2.59233e-05
*RES
1 *796:ZN *868:D 13.888 
*END

*D_NET *43 0.000982814
*CONN
*I *869:D I *D gf180mcu_fd_sc_mcu7t5v0__dffrnq_1
*I *801:ZN O *D gf180mcu_fd_sc_mcu7t5v0__nor2_1
*CAP
1 *869:D 0.000142005
2 *801:ZN 0.000142005
3 *869:D *793:A4 6.40114e-06
4 *869:D *796:A1 2.52289e-05
5 *869:D *844:A2 0.000591167
6 *869:D *175:14 7.60068e-05
*RES
1 *801:ZN *869:D 19.768 
*END

*D_NET *44 0.00291322
*CONN
*I *870:D I *D gf180mcu_fd_sc_mcu7t5v0__dffrnq_1
*I *805:ZN O *D gf180mcu_fd_sc_mcu7t5v0__nor2_1
*CAP
1 *870:D 0.00048703
2 *805:ZN 0.00048703
3 *870:D *775:A2 0.000548119
4 *870:D *798:A1 1.60338e-05
5 *870:D *802:A2 3.38251e-05
6 *870:D *805:A2 0.000280969
7 *870:D *807:A1 3.4596e-05
8 *870:D *829:B 0
9 *870:D *92:6 0
10 *870:D *113:26 0.000139186
11 *870:D *126:20 0.000709641
12 *870:D *152:22 0.00017679
*RES
1 *805:ZN *870:D 23.72 
*END

*D_NET *45 0.0063397
*CONN
*I *871:D I *D gf180mcu_fd_sc_mcu7t5v0__dffrnq_1
*I *807:ZN O *D gf180mcu_fd_sc_mcu7t5v0__nor2_1
*CAP
1 *871:D 0.00088014
2 *807:ZN 0.00088014
3 *871:D *777:A2 5.91309e-05
4 *871:D *802:A1 0.000513353
5 *871:D *805:A2 0.00140583
6 *871:D *807:A2 0.000101206
7 *871:D *845:A1 3.42651e-05
8 *871:D *845:A2 0.000122244
9 *871:D *846:B 0.000169099
10 *871:D *847:A1 0.000106908
11 *871:D *848:B 0
12 *871:D *850:A1 9.0311e-05
13 *871:D *851:A2 7.87395e-06
14 *871:D *98:12 0
15 *871:D *126:10 6.062e-05
16 *871:D *143:10 0.00132731
17 *871:D *152:22 0
18 *871:D *171:27 0.000343768
19 *871:D *171:34 4.82113e-05
20 *871:D *174:55 0.000189298
*RES
1 *807:ZN *871:D 31 
*END

*D_NET *46 0.000565494
*CONN
*I *872:D I *D gf180mcu_fd_sc_mcu7t5v0__dffrnq_1
*I *810:ZN O *D gf180mcu_fd_sc_mcu7t5v0__nor2_1
*CAP
1 *872:D 0.000120532
2 *810:ZN 0.000120532
3 *872:D *914:I 0.000155331
4 *872:D *216:14 0.000169099
*RES
1 *810:ZN *872:D 10.664 
*END

*D_NET *47 0.00157659
*CONN
*I *873:D I *D gf180mcu_fd_sc_mcu7t5v0__dffrnq_1
*I *813:ZN O *D gf180mcu_fd_sc_mcu7t5v0__nor2_1
*CAP
1 *873:D 0.000381374
2 *813:ZN 0.000381374
3 *873:D *810:A1 0.000179953
4 *873:D *810:A2 0
5 *873:D *914:I 0.000159517
6 *873:D *175:29 4.58772e-05
7 *873:D *216:14 0.000428493
*RES
1 *813:ZN *873:D 21.536 
*END

*D_NET *48 0.0011458
*CONN
*I *874:D I *D gf180mcu_fd_sc_mcu7t5v0__dffrnq_1
*I *814:ZN O *D gf180mcu_fd_sc_mcu7t5v0__nor2_1
*CAP
1 *874:D 0.000259328
2 *814:ZN 0.000259328
3 *874:D *761:A1 4.09564e-05
4 *874:D *815:A1 0.000408707
5 *874:D *875:D 9.15907e-05
6 *874:D *211:26 8.58959e-05
*RES
1 *814:ZN *874:D 20.704 
*END

*D_NET *49 0.00285807
*CONN
*I *875:D I *D gf180mcu_fd_sc_mcu7t5v0__dffrnq_1
*I *815:ZN O *D gf180mcu_fd_sc_mcu7t5v0__nor2_1
*CAP
1 *875:D 0.0010499
2 *815:ZN 0.0010499
3 *875:D *761:A1 0
4 *875:D *814:A1 0
5 *875:D *815:A1 6.84289e-06
6 *875:D *875:CLK 0
7 *875:D *901:I 1.28221e-05
8 *875:D *132:33 0
9 *875:D *132:37 0
10 *875:D *132:48 0
11 *875:D *132:160 0.000282184
12 *875:D *175:63 4.03094e-05
13 *875:D *211:26 0.000324521
14 *874:D *875:D 9.15907e-05
*RES
1 *815:ZN *875:D 26.424 
*END

*D_NET *50 0.00246474
*CONN
*I *876:D I *D gf180mcu_fd_sc_mcu7t5v0__dffrnq_1
*I *818:ZN O *D gf180mcu_fd_sc_mcu7t5v0__oai21_1
*CAP
1 *876:D 0.000513306
2 *818:ZN 0.000513306
3 *876:D *816:A1 8.81993e-05
4 *876:D *840:A2 1.63544e-05
5 *876:D *876:CLK 5.91254e-05
6 *876:D *66:53 0.000472532
7 *876:D *104:14 0.00039949
8 *876:D *133:31 0.000402429
*RES
1 *818:ZN *876:D 15.032 
*END

*D_NET *51 0.00069642
*CONN
*I *877:D I *D gf180mcu_fd_sc_mcu7t5v0__dffrnq_1
*I *820:ZN O *D gf180mcu_fd_sc_mcu7t5v0__oai22_1
*CAP
1 *877:D 0.00012202
2 *820:ZN 0.00012202
3 *877:D *820:A1 0.000428493
4 *877:D *820:A2 0
5 *877:D *877:CLK 2.38865e-05
*RES
1 *820:ZN *877:D 10.456 
*END

*D_NET *52 0.00434333
*CONN
*I *878:D I *D gf180mcu_fd_sc_mcu7t5v0__dffrnq_1
*I *826:ZN O *D gf180mcu_fd_sc_mcu7t5v0__aoi22_1
*CAP
1 *878:D 0.000568051
2 *826:ZN 0.000568051
3 *878:D *749:I 0.000196345
4 *878:D *820:A2 0.00103731
5 *878:D *826:B2 0.00149241
6 *878:D *878:CLK 7.87395e-06
7 *878:D *879:D 4.79893e-05
8 *878:D *879:CLK 0
9 *878:D *85:22 0.000425304
*RES
1 *826:ZN *878:D 26.112 
*END

*D_NET *53 0.0015142
*CONN
*I *879:D I *D gf180mcu_fd_sc_mcu7t5v0__dffrnq_1
*I *828:ZN O *D gf180mcu_fd_sc_mcu7t5v0__oai31_1
*CAP
1 *879:D 0.000525068
2 *828:ZN 0.000525068
3 *879:D *749:I 3.43999e-05
4 *879:D *820:A2 0
5 *879:D *827:A2 0.00030991
6 *879:D *879:CLK 7.17602e-05
7 *878:D *879:D 4.79893e-05
*RES
1 *828:ZN *879:D 22.992 
*END

*D_NET *54 0.001421
*CONN
*I *853:D I *D gf180mcu_fd_sc_mcu7t5v0__dffrnq_1
*I *833:ZN O *D gf180mcu_fd_sc_mcu7t5v0__oai32_1
*CAP
1 *853:D 0.000456246
2 *833:ZN 0.000456246
3 *853:D *833:A2 8.42528e-05
4 *853:D *838:A1 0
5 *853:D *838:A3 8.39152e-05
6 *853:D *842:A2 4.1546e-05
7 *853:D *842:B 6.32895e-05
8 *853:D *856:D 0.000174813
9 *853:D *858:D 6.06951e-05
*RES
1 *833:ZN *853:D 12.744 
*END

*D_NET *55 0.000687626
*CONN
*I *854:D I *D gf180mcu_fd_sc_mcu7t5v0__dffrnq_1
*I *835:ZN O *D gf180mcu_fd_sc_mcu7t5v0__oai21_1
*CAP
1 *854:D 0.000334233
2 *835:ZN 0.000334233
3 *854:D *835:A2 1.91601e-05
4 *854:D *857:RN 0
5 *854:D *69:12 0
*RES
1 *835:ZN *854:D 11.288 
*END

*D_NET *56 0.00279212
*CONN
*I *855:D I *D gf180mcu_fd_sc_mcu7t5v0__dffrnq_1
*I *837:ZN O *D gf180mcu_fd_sc_mcu7t5v0__nor3_1
*CAP
1 *855:D 0.000409985
2 *837:ZN 0.000409985
3 *855:D *836:A2 0.000569964
4 *855:D *837:A1 0.00122833
5 *855:D *856:D 2.76827e-05
6 *855:D *858:D 0.000113962
7 *855:D *172:14 3.22108e-05
*RES
1 *837:ZN *855:D 13.784 
*END

*D_NET *57 0.00327293
*CONN
*I *856:D I *D gf180mcu_fd_sc_mcu7t5v0__dffrnq_1
*I *839:ZN O *D gf180mcu_fd_sc_mcu7t5v0__oai31_1
*CAP
1 *856:D 0.000446394
2 *839:ZN 0.000446394
3 *856:D *833:A1 0.00024523
4 *856:D *833:A2 1.03327e-05
5 *856:D *833:B1 4.3736e-05
6 *856:D *835:A1 9.35542e-06
7 *856:D *836:A2 4.18042e-05
8 *856:D *838:A1 5.17348e-05
9 *856:D *838:A3 4.4504e-06
10 *856:D *842:A2 2.81522e-06
11 *856:D *842:B 2.76367e-05
12 *856:D *853:CLK 3.4596e-05
13 *856:D *858:D 0.000648572
14 *856:D *66:96 7.0954e-06
15 *856:D *70:20 9.91221e-05
16 *856:D *125:27 0.000316535
17 *856:D *135:22 1.19708e-05
18 *856:D *172:14 0.000622658
19 *853:D *856:D 0.000174813
20 *855:D *856:D 2.76827e-05
*RES
1 *839:ZN *856:D 23.304 
*END

*D_NET *58 0.000799169
*CONN
*I *857:D I *D gf180mcu_fd_sc_mcu7t5v0__dffrnq_1
*I *840:ZN O *D gf180mcu_fd_sc_mcu7t5v0__oai22_1
*CAP
1 *857:D 0.000244958
2 *840:ZN 0.000244958
3 *857:D *840:A1 0.00011834
4 *857:D *840:A2 2.4028e-06
5 *857:D *876:CLK 6.86751e-05
6 *857:D *133:31 0.000119835
7 *857:D *153:29 0
*RES
1 *840:ZN *857:D 10.976 
*END

*D_NET *59 0.00409793
*CONN
*I *858:D I *D gf180mcu_fd_sc_mcu7t5v0__dffrnq_1
*I *842:ZN O *D gf180mcu_fd_sc_mcu7t5v0__oai21_1
*CAP
1 *858:D 0.000749501
2 *842:ZN 0.000749501
3 *858:D *836:A2 0.000119597
4 *858:D *838:A1 0.00083826
5 *858:D *842:A2 0.000187119
6 *858:D *842:B 0.000490814
7 *858:D *172:14 0.000139908
8 *853:D *858:D 6.06951e-05
9 *855:D *858:D 0.000113962
10 *856:D *858:D 0.000648572
*RES
1 *842:ZN *858:D 26.424 
*END

*D_NET *60 0.00082
*CONN
*I *859:D I *D gf180mcu_fd_sc_mcu7t5v0__dffrnq_1
*I *844:ZN O *D gf180mcu_fd_sc_mcu7t5v0__oai21_1
*CAP
1 *859:D 0.000380302
2 *844:ZN 0.000380302
3 *859:D *851:A2 1.13542e-05
4 *859:D *98:12 4.15898e-06
5 *859:D *136:8 4.38831e-05
*RES
1 *844:ZN *859:D 11.392 
*END

*D_NET *61 0.00165849
*CONN
*I *860:D I *D gf180mcu_fd_sc_mcu7t5v0__dffrnq_1
*I *846:ZN O *D gf180mcu_fd_sc_mcu7t5v0__oai21_1
*CAP
1 *860:D 0.000548679
2 *846:ZN 0.000548679
3 *860:D *846:A2 0
4 *860:D *846:B 0
5 *860:D *871:CLK 0
6 *860:D *136:37 0
7 *860:D *171:12 6.03575e-05
8 *860:D *174:44 0.000500772
*RES
1 *846:ZN *860:D 22.992 
*END

*D_NET *62 0.000740291
*CONN
*I *861:D I *D gf180mcu_fd_sc_mcu7t5v0__dffrnq_1
*I *848:ZN O *D gf180mcu_fd_sc_mcu7t5v0__oai21_1
*CAP
1 *861:D 7.13973e-05
2 *848:ZN 7.13973e-05
3 *861:D *98:12 0.000509988
4 *861:D *143:10 8.75081e-05
*RES
1 *848:ZN *861:D 10.352 
*END

*D_NET *63 0.000734197
*CONN
*I *862:D I *D gf180mcu_fd_sc_mcu7t5v0__dffrnq_1
*I *850:ZN O *D gf180mcu_fd_sc_mcu7t5v0__oai21_1
*CAP
1 *862:D 0.000306282
2 *850:ZN 0.000306282
3 *862:D *807:A2 0
4 *862:D *171:42 0
5 *862:D *174:86 0.000121633
*RES
1 *850:ZN *862:D 20.288 
*END

*D_NET *64 0.000755204
*CONN
*I *863:D I *D gf180mcu_fd_sc_mcu7t5v0__dffrnq_1
*I *852:ZN O *D gf180mcu_fd_sc_mcu7t5v0__oai21_1
*CAP
1 *863:D 0.000289522
2 *852:ZN 0.000289522
3 *863:D *782:B 2.6236e-05
4 *863:D *171:42 0
5 *863:D *174:90 0.000149923
*RES
1 *852:ZN *863:D 19.872 
*END

*D_NET *65 0.00772107
*CONN
*I *773:A4 I *D gf180mcu_fd_sc_mcu7t5v0__nand4_1
*I *792:A3 I *D gf180mcu_fd_sc_mcu7t5v0__nand3_1
*I *793:A4 I *D gf180mcu_fd_sc_mcu7t5v0__nand4_1
*I *817:A1 I *D gf180mcu_fd_sc_mcu7t5v0__nand2_1
*I *825:A4 I *D gf180mcu_fd_sc_mcu7t5v0__nand4_1
*I *766:Z O *D gf180mcu_fd_sc_mcu7t5v0__and2_1
*CAP
1 *773:A4 0.000340539
2 *792:A3 0
3 *793:A4 0.000143036
4 *817:A1 0
5 *825:A4 0.000264484
6 *766:Z 0.000157269
7 *65:40 0.000223678
8 *65:20 0.00066412
9 *65:14 0.00116197
10 *65:8 0.0011795
11 *773:A4 *766:A1 0
12 *773:A4 *896:I 1.70366e-05
13 *773:A4 *132:17 1.48728e-05
14 *773:A4 *134:12 0.000497696
15 *773:A4 *187:16 0.000105345
16 *773:A4 *191:12 3.56165e-05
17 *793:A4 *792:A1 0.000280581
18 *793:A4 *794:A2 0.000197059
19 *793:A4 *797:A1 0.000175128
20 *793:A4 *172:22 1.18566e-06
21 *793:A4 *175:14 0
22 *825:A4 *823:A1 0.000119964
23 *825:A4 *823:A2 0.000202476
24 *825:A4 *878:RN 5.63044e-06
25 *825:A4 *85:55 1.41447e-05
26 *825:A4 *156:10 3.57634e-06
27 *825:A4 *181:8 0.000711445
28 *65:8 *191:12 0.000226085
29 *65:14 *766:A1 1.0603e-05
30 *65:14 *787:A2 6.51159e-05
31 *65:14 *788:A2 0
32 *65:14 *792:A2 0
33 *65:14 *797:A1 8.93357e-05
34 *65:14 *840:A2 0
35 *65:14 *866:RN 8.64724e-05
36 *65:14 *187:16 1.63544e-05
37 *65:14 *212:43 0
38 *65:20 *787:A2 5.47783e-05
39 *65:20 *823:A1 0
40 *65:20 *840:A2 4.13954e-05
41 *65:20 *66:32 0
42 *65:20 *66:53 0.000419276
43 *65:20 *172:22 0
44 *65:40 *787:A2 6.36074e-05
45 *65:40 *797:A1 0.000125283
46 *65:40 *172:22 0
47 *869:D *793:A4 6.40114e-06
*RES
1 *766:Z *65:8 10.976 
2 *65:8 *65:14 13.888 
3 *65:14 *65:20 8.244 
4 *65:20 *825:A4 16.412 
5 *65:20 *817:A1 4.5 
6 *65:14 *65:40 1.144 
7 *65:40 *793:A4 11.08 
8 *65:40 *792:A3 9 
9 *65:8 *773:A4 12.12 
*END

*D_NET *66 0.0268871
*CONN
*I *798:A3 I *D gf180mcu_fd_sc_mcu7t5v0__nor4_4
*I *775:A3 I *D gf180mcu_fd_sc_mcu7t5v0__nor4_4
*I *772:A3 I *D gf180mcu_fd_sc_mcu7t5v0__nor3_2
*I *839:A3 I *D gf180mcu_fd_sc_mcu7t5v0__oai31_1
*I *838:A3 I *D gf180mcu_fd_sc_mcu7t5v0__nand3_1
*I *769:A2 I *D gf180mcu_fd_sc_mcu7t5v0__or3_1
*I *840:A1 I *D gf180mcu_fd_sc_mcu7t5v0__oai22_1
*I *816:A3 I *D gf180mcu_fd_sc_mcu7t5v0__nand3_1
*I *789:A2 I *D gf180mcu_fd_sc_mcu7t5v0__nand2_1
*I *767:ZN O *D gf180mcu_fd_sc_mcu7t5v0__nand2_2
*CAP
1 *798:A3 0.000851159
2 *775:A3 0
3 *772:A3 0.000851159
4 *839:A3 0
5 *838:A3 0.000731495
6 *769:A2 3.80687e-05
7 *840:A1 8.78036e-05
8 *816:A3 0.000349821
9 *789:A2 0.000245359
10 *767:ZN 0.000189676
11 *66:96 0.00177409
12 *66:81 0.00135211
13 *66:68 0.000630491
14 *66:53 0.00127463
15 *66:32 0.00202978
16 *66:14 0.00145426
17 *66:12 0.000513078
18 *769:A2 *153:29 2.64063e-05
19 *769:A2 *172:22 9.76253e-05
20 *789:A2 *789:A1 1.71326e-05
21 *789:A2 *85:10 5.13977e-05
22 *789:A2 *85:55 0
23 *798:A3 *804:A1 0.000315824
24 *798:A3 *804:A2 0.000203739
25 *798:A3 *829:B 2.24654e-05
26 *798:A3 *92:6 0.000367222
27 *798:A3 *113:26 0.000187117
28 *798:A3 *152:37 0.000262303
29 *798:A3 *189:10 0
30 *798:A3 *212:19 6.88149e-05
31 *816:A3 *748:I 0.00033605
32 *816:A3 *153:29 1.11523e-05
33 *838:A3 *779:A1 4.6157e-05
34 *838:A3 *833:A2 0
35 *838:A3 *833:B1 7.37285e-06
36 *838:A3 *839:B 8.27233e-06
37 *838:A3 *842:A2 0.000299804
38 *838:A3 *951:I 0.000113016
39 *838:A3 *956:I 3.4596e-05
40 *838:A3 *78:6 0.00096149
41 *838:A3 *125:27 3.57634e-06
42 *838:A3 *204:12 0.000328552
43 *840:A1 *840:B1 1.71326e-05
44 *840:A1 *133:31 2.19717e-05
45 *840:A1 *153:29 0
46 *66:12 *774:A2 1.12231e-05
47 *66:12 *775:A4 0.000113016
48 *66:12 *808:A2 3.18325e-05
49 *66:12 *145:32 4.42325e-05
50 *66:12 *211:26 0.000194606
51 *66:14 *773:A1 1.36398e-06
52 *66:14 *775:A2 1.70957e-06
53 *66:14 *808:A2 0.000231732
54 *66:14 *126:20 0.000172496
55 *66:14 *126:28 8.44565e-06
56 *66:14 *187:16 0
57 *66:14 *211:26 4.67771e-06
58 *66:32 *773:A1 1.78817e-06
59 *66:32 *787:A1 0.00052233
60 *66:32 *787:A2 7.47302e-05
61 *66:32 *797:A2 0.000673265
62 *66:32 *798:A4 0.000425626
63 *66:32 *866:RN 2.11493e-05
64 *66:32 *113:26 0.0011899
65 *66:32 *126:28 0.000370555
66 *66:32 *187:16 4.89237e-05
67 *66:32 *212:43 9.37193e-05
68 *66:53 *816:A1 0.00110422
69 *66:53 *824:B 0.000248317
70 *66:53 *840:A2 4.23591e-05
71 *66:53 *928:I 4.67771e-06
72 *66:53 *85:55 0.000858474
73 *66:53 *104:8 0.000258114
74 *66:53 *104:14 9.35542e-06
75 *66:53 *181:8 0.000841448
76 *66:53 *191:22 0
77 *66:68 *153:29 2.16656e-05
78 *66:81 *840:B2 0.000556932
79 *66:81 *153:29 3.09676e-05
80 *66:96 *831:A2 0.000124479
81 *66:96 *840:B2 0.000625666
82 *66:96 *910:I 0.000192975
83 *66:96 *956:I 0.000219958
84 *66:96 *70:20 0
85 *66:96 *112:29 0.00019491
86 *66:96 *113:26 2.22589e-05
87 *66:96 *125:21 5.23942e-06
88 *853:D *838:A3 8.39152e-05
89 *856:D *838:A3 4.4504e-06
90 *856:D *66:96 7.0954e-06
91 *857:D *840:A1 0.00011834
92 *876:D *66:53 0.000472532
93 *65:20 *66:32 0
94 *65:20 *66:53 0.000419276
*RES
1 *767:ZN *66:12 15.372 
2 *66:12 *66:14 3.224 
3 *66:14 *66:32 16.772 
4 *66:32 *789:A2 10.456 
5 *66:32 *66:53 18.88 
6 *66:53 *816:A3 11.392 
7 *66:53 *66:68 1.56 
8 *66:68 *840:A1 9.832 
9 *66:68 *66:81 2.392 
10 *66:81 *769:A2 9.312 
11 *66:81 *66:96 13.028 
12 *66:96 *838:A3 11.572 
13 *66:96 *839:A3 4.5 
14 *66:14 *772:A3 4.5 
15 *66:12 *775:A3 4.5 
16 *772:A3 *798:A3 26.32 
*END

*D_NET *67 0.00251968
*CONN
*I *769:A3 I *D gf180mcu_fd_sc_mcu7t5v0__or3_1
*I *768:ZN O *D gf180mcu_fd_sc_mcu7t5v0__nand3_1
*CAP
1 *769:A3 0.000316293
2 *768:ZN 0.000316293
3 *769:A3 *780:A2 6.38863e-05
4 *769:A3 *824:A1 0
5 *769:A3 *832:B 3.93698e-05
6 *769:A3 *869:CLK 9.88854e-06
7 *769:A3 *113:26 0
8 *769:A3 *153:40 4.59575e-05
9 *769:A3 *153:42 4.41041e-05
10 *769:A3 *172:22 0.000947077
11 *769:A3 *181:32 0.000736815
*RES
1 *768:ZN *769:A3 22.576 
*END

*D_NET *68 0.00282444
*CONN
*I *770:I I *D gf180mcu_fd_sc_mcu7t5v0__clkinv_1
*I *780:A2 I *D gf180mcu_fd_sc_mcu7t5v0__nand2_2
*I *832:B I *D gf180mcu_fd_sc_mcu7t5v0__aoi21_1
*I *769:Z O *D gf180mcu_fd_sc_mcu7t5v0__or3_1
*CAP
1 *770:I 0.000109098
2 *780:A2 0.000508225
3 *832:B 0.000377645
4 *769:Z 0
5 *68:4 0.000776772
6 *780:A2 *780:A1 6.49835e-06
7 *780:A2 *831:A2 4.16074e-05
8 *780:A2 *869:CLK 0.000199998
9 *780:A2 *112:18 2.84264e-05
10 *780:A2 *113:26 0.000109456
11 *780:A2 *180:10 0.000177012
12 *780:A2 *181:32 2.60017e-05
13 *832:B *751:I 0.000179244
14 *832:B *832:A1 1.57479e-05
15 *832:B *834:A1 1.12327e-05
16 *832:B *112:18 2.31734e-05
17 *832:B *113:26 3.3698e-05
18 *832:B *172:22 9.73518e-05
19 *769:A3 *780:A2 6.38863e-05
20 *769:A3 *832:B 3.93698e-05
*RES
1 *769:Z *68:4 4.5 
2 *68:4 *832:B 8.036 
3 *68:4 *780:A2 17.244 
4 *780:A2 *770:I 9.936 
*END

*D_NET *69 0.00740706
*CONN
*I *771:A2 I *D gf180mcu_fd_sc_mcu7t5v0__nand2_2
*I *779:A2 I *D gf180mcu_fd_sc_mcu7t5v0__nor2_1
*I *836:A2 I *D gf180mcu_fd_sc_mcu7t5v0__nor2_1
*I *770:ZN O *D gf180mcu_fd_sc_mcu7t5v0__clkinv_1
*CAP
1 *771:A2 0.000126336
2 *779:A2 0
3 *836:A2 0.000488106
4 *770:ZN 0.000110936
5 *69:12 0.00122761
6 *69:8 0.000976772
7 *771:A2 *956:I 1.45844e-05
8 *771:A2 *180:10 4.58772e-05
9 *771:A2 *180:21 0.000172055
10 *836:A2 *837:A1 2.46831e-05
11 *836:A2 *837:A3 2.98389e-05
12 *836:A2 *838:A1 8.0095e-05
13 *836:A2 *842:A1 6.22117e-05
14 *836:A2 *842:B 0.000720816
15 *836:A2 *853:CLK 0.00037438
16 *836:A2 *854:CLK 0.00112106
17 *836:A2 *172:14 8.63569e-05
18 *69:8 *180:10 0.000191707
19 *69:12 *779:A1 0.000281495
20 *69:12 *831:A2 0
21 *69:12 *910:I 1.9676e-05
22 *69:12 *125:6 0.00033888
23 *69:12 *170:10 0.000182219
24 *854:D *69:12 0
25 *855:D *836:A2 0.000569964
26 *856:D *836:A2 4.18042e-05
27 *858:D *836:A2 0.000119597
28 *868:D *69:12 0
*RES
1 *770:ZN *69:8 10.144 
2 *69:8 *69:12 10.22 
3 *69:12 *836:A2 20.884 
4 *69:12 *779:A2 4.5 
5 *69:8 *771:A2 10.352 
*END

*D_NET *70 0.00892233
*CONN
*I *924:I I *D gf180mcu_fd_sc_mcu7t5v0__buf_2
*I *833:B2 I *D gf180mcu_fd_sc_mcu7t5v0__oai32_1
*I *835:A1 I *D gf180mcu_fd_sc_mcu7t5v0__oai21_1
*I *771:ZN O *D gf180mcu_fd_sc_mcu7t5v0__nand2_2
*CAP
1 *924:I 0.000626421
2 *833:B2 0
3 *835:A1 0.000122026
4 *771:ZN 0.000144825
5 *70:20 0.000502505
6 *70:8 0.00115172
7 *835:A1 *751:I 1.823e-05
8 *835:A1 *833:B1 0.000103788
9 *835:A1 *842:A2 0.00017298
10 *835:A1 *942:I 0.000550424
11 *835:A1 *115:8 0.00179698
12 *835:A1 *170:10 0.000478241
13 *924:I *838:A1 3.85294e-05
14 *924:I *842:B 0.000256274
15 *924:I *956:I 4.96809e-05
16 *924:I *170:25 0.000256274
17 *70:8 *838:A1 1.9026e-05
18 *70:8 *956:I 7.23871e-05
19 *70:8 *180:21 4.40795e-05
20 *70:20 *833:B1 0.000169324
21 *70:20 *837:A1 0.000185667
22 *70:20 *842:A2 0.000244934
23 *70:20 *868:CLK 0.000406972
24 *70:20 *942:I 5.23429e-05
25 *70:20 *956:I 0
26 *70:20 *125:21 9.11686e-06
27 *70:20 *125:27 0.00017139
28 *70:20 *135:20 0.000906201
29 *70:20 *135:22 0.000263507
30 *856:D *835:A1 9.35542e-06
31 *856:D *70:20 9.91221e-05
32 *66:96 *70:20 0
*RES
1 *771:ZN *70:8 10.144 
2 *70:8 *70:20 18.596 
3 *70:20 *835:A1 18.7 
4 *70:20 *833:B2 4.5 
5 *70:8 *924:I 14.408 
*END

*D_NET *71 0.00431997
*CONN
*I *809:A2 I *D gf180mcu_fd_sc_mcu7t5v0__xnor2_1
*I *808:A2 I *D gf180mcu_fd_sc_mcu7t5v0__xor2_1
*I *772:ZN O *D gf180mcu_fd_sc_mcu7t5v0__nor3_2
*CAP
1 *809:A2 9.36e-05
2 *808:A2 0.000369327
3 *772:ZN 0.000275727
4 *808:A2 *775:A4 5.09626e-05
5 *808:A2 *809:A1 4.67771e-06
6 *808:A2 *72:8 0.00149889
7 *808:A2 *175:63 0
8 *809:A2 *775:A4 0.000337769
9 *809:A2 *809:A1 0.00027306
10 *809:A2 *175:63 2.24654e-05
11 *809:A2 *211:26 0.00112993
12 *66:12 *808:A2 3.18325e-05
13 *66:14 *808:A2 0.000231732
*RES
1 *772:ZN *808:A2 13.368 
2 *808:A2 *809:A2 12.016 
*END

*D_NET *72 0.00495896
*CONN
*I *812:A2 I *D gf180mcu_fd_sc_mcu7t5v0__xor2_1
*I *811:A2 I *D gf180mcu_fd_sc_mcu7t5v0__xnor2_1
*I *773:ZN O *D gf180mcu_fd_sc_mcu7t5v0__nand4_1
*CAP
1 *812:A2 0.000234823
2 *811:A2 0
3 *773:ZN 0.000282503
4 *72:8 0.000517326
5 *812:A2 *774:A2 0
6 *812:A2 *809:A1 1.91879e-05
7 *812:A2 *812:A1 0.000158231
8 *812:A2 *872:RN 0
9 *812:A2 *146:8 7.16472e-05
10 *812:A2 *175:63 0.000554726
11 *72:8 *773:A2 0.00134239
12 *72:8 *774:A2 2.55997e-05
13 *72:8 *809:A1 5.91314e-05
14 *72:8 *145:17 0.000194511
15 *808:A2 *72:8 0.00149889
*RES
1 *773:ZN *72:8 10.116 
2 *72:8 *811:A2 4.5 
3 *72:8 *812:A2 7.516 
*END

*D_NET *73 0.00220736
*CONN
*I *775:A4 I *D gf180mcu_fd_sc_mcu7t5v0__nor4_4
*I *774:ZN O *D gf180mcu_fd_sc_mcu7t5v0__nand2_1
*CAP
1 *775:A4 0.000319849
2 *774:ZN 0.000319849
3 *775:A4 *774:A2 5.39304e-05
4 *775:A4 *809:A1 0.000410048
5 *775:A4 *145:32 4.45967e-05
6 *775:A4 *175:29 0.000153825
7 *775:A4 *175:55 9.42233e-05
8 *775:A4 *175:85 8.87924e-05
9 *775:A4 *211:26 0.000220496
10 *808:A2 *775:A4 5.09626e-05
11 *809:A2 *775:A4 0.000337769
12 *66:12 *775:A4 0.000113016
*RES
1 *774:ZN *775:A4 22.576 
*END

*D_NET *74 0.00365533
*CONN
*I *778:A2 I *D gf180mcu_fd_sc_mcu7t5v0__xnor2_1
*I *776:A2 I *D gf180mcu_fd_sc_mcu7t5v0__nand2_1
*I *777:A2 I *D gf180mcu_fd_sc_mcu7t5v0__xor2_1
*I *775:ZN O *D gf180mcu_fd_sc_mcu7t5v0__nor4_4
*CAP
1 *778:A2 0
2 *776:A2 0.000127707
3 *777:A2 0.000571159
4 *775:ZN 0.000393288
5 *74:18 0.000305577
6 *776:A2 *776:A1 0.000574825
7 *776:A2 *852:A2 2.76472e-05
8 *776:A2 *211:26 0.000122244
9 *777:A2 *775:A2 1.07369e-05
10 *777:A2 *777:A1 0.000122244
11 *777:A2 *830:A1 0
12 *777:A2 *830:B 0.000125933
13 *777:A2 *830:C 1.61008e-05
14 *777:A2 *126:10 0.000180809
15 *777:A2 *152:14 2.13874e-05
16 *777:A2 *152:22 0.000936188
17 *74:18 *777:A1 6.03497e-05
18 *74:18 *211:26 0
19 *871:D *777:A2 5.91309e-05
*RES
1 *775:ZN *777:A2 13.472 
2 *777:A2 *74:18 5.852 
3 *74:18 *776:A2 15.372 
4 *74:18 *778:A2 4.5 
*END

*D_NET *75 0.00317558
*CONN
*I *783:A2 I *D gf180mcu_fd_sc_mcu7t5v0__xor2_1
*I *776:ZN O *D gf180mcu_fd_sc_mcu7t5v0__nand2_1
*CAP
1 *783:A2 0.00075517
2 *776:ZN 0.00075517
3 *783:A2 *776:A1 1.07369e-05
4 *783:A2 *783:A1 0
5 *783:A2 *875:RN 0.000271894
6 *783:A2 *901:I 0.000137246
7 *783:A2 *77:8 0.000118784
8 *783:A2 *132:160 0.000528106
9 *783:A2 *194:26 0.000276247
10 *783:A2 *211:26 0.000322231
*RES
1 *776:ZN *783:A2 18.048 
*END

*D_NET *76 0.000729794
*CONN
*I *830:C I *D gf180mcu_fd_sc_mcu7t5v0__oai211_1
*I *777:Z O *D gf180mcu_fd_sc_mcu7t5v0__xor2_1
*CAP
1 *830:C 0.000293994
2 *777:Z 0.000293994
3 *830:C *830:A1 6.26303e-05
4 *830:C *850:A2 6.3074e-05
5 *830:C *211:26 0
6 *777:A2 *830:C 1.61008e-05
*RES
1 *777:Z *830:C 10.976 
*END

*D_NET *77 0.00302461
*CONN
*I *782:A2 I *D gf180mcu_fd_sc_mcu7t5v0__oai21_1
*I *814:A1 I *D gf180mcu_fd_sc_mcu7t5v0__nor2_1
*I *778:ZN O *D gf180mcu_fd_sc_mcu7t5v0__xnor2_1
*CAP
1 *782:A2 0.000498386
2 *814:A1 0.000277106
3 *778:ZN 0.00017559
4 *77:8 0.000951081
5 *782:A2 *852:A2 0.000233056
6 *814:A1 *852:A2 2.75139e-05
7 *814:A1 *175:63 0.000148864
8 *814:A1 *211:26 0.000582267
9 *77:8 *875:RN 1.19584e-05
10 *783:A2 *77:8 0.000118784
11 *875:D *814:A1 0
*RES
1 *778:ZN *77:8 10.352 
2 *77:8 *814:A1 11.912 
3 *77:8 *782:A2 13.888 
*END

*D_NET *78 0.00573099
*CONN
*I *956:I I *D gf180mcu_fd_sc_mcu7t5v0__dlyb_1
*I *910:I I *D gf180mcu_fd_sc_mcu7t5v0__dlyb_1
*I *779:ZN O *D gf180mcu_fd_sc_mcu7t5v0__nor2_1
*CAP
1 *956:I 0.00057032
2 *910:I 0.000403028
3 *779:ZN 0.000134252
4 *78:6 0.0011076
5 *910:I *833:B1 0.000188823
6 *910:I *835:A2 0
7 *910:I *112:29 0.000110509
8 *910:I *125:21 0.000103092
9 *956:I *125:6 0.000528065
10 *956:I *125:21 0
11 *956:I *180:21 0
12 *78:6 *779:A1 0.000892298
13 *78:6 *125:6 0.000103788
14 *771:A2 *956:I 1.45844e-05
15 *838:A3 *956:I 3.4596e-05
16 *838:A3 *78:6 0.00096149
17 *868:D *956:I 2.38656e-05
18 *924:I *956:I 4.96809e-05
19 *66:96 *910:I 0.000192975
20 *66:96 *956:I 0.000219958
21 *69:12 *910:I 1.9676e-05
22 *70:8 *956:I 7.23871e-05
23 *70:20 *956:I 0
*RES
1 *779:ZN *78:6 7.308 
2 *78:6 *910:I 17.036 
3 *78:6 *956:I 18.076 
*END

*D_NET *79 0.00341714
*CONN
*I *925:I I *D gf180mcu_fd_sc_mcu7t5v0__buf_2
*I *824:A1 I *D gf180mcu_fd_sc_mcu7t5v0__oai21_1
*I *780:ZN O *D gf180mcu_fd_sc_mcu7t5v0__nand2_2
*CAP
1 *925:I 0
2 *824:A1 0.000830923
3 *780:ZN 0.000465275
4 *79:10 0.0012962
5 *824:A1 *780:A1 0
6 *824:A1 *796:A1 5.40384e-05
7 *824:A1 *827:A2 5.469e-05
8 *824:A1 *106:8 5.33712e-05
9 *824:A1 *153:40 6.85626e-05
10 *824:A1 *153:42 0.000177905
11 *824:A1 *172:22 0
12 *824:A1 *175:14 8.96201e-05
13 *824:A1 *181:32 0
14 *79:10 *780:A1 5.10196e-05
15 *79:10 *796:A1 6.89586e-05
16 *79:10 *868:RN 3.47803e-05
17 *79:10 *897:I 0.000134173
18 *79:10 *132:93 3.76225e-05
19 *79:10 *180:10 0
20 *769:A3 *824:A1 0
*RES
1 *780:ZN *79:10 12.536 
2 *79:10 *824:A1 15.344 
3 *79:10 *925:I 9 
*END

*D_NET *80 0.0019247
*CONN
*I *782:B I *D gf180mcu_fd_sc_mcu7t5v0__oai21_1
*I *781:ZN O *D gf180mcu_fd_sc_mcu7t5v0__nand2_1
*CAP
1 *782:B 0.000712938
2 *781:ZN 0.000712938
3 *782:B *781:A2 0
4 *782:B *851:A1 0.000301097
5 *782:B *852:A2 1.19766e-05
6 *782:B *852:B 0
7 *782:B *863:RN 0.000159517
8 *782:B *171:42 0
9 *863:D *782:B 2.6236e-05
*RES
1 *781:ZN *782:B 24.448 
*END

*D_NET *81 0.00247117
*CONN
*I *785:A2 I *D gf180mcu_fd_sc_mcu7t5v0__oai21_1
*I *815:A2 I *D gf180mcu_fd_sc_mcu7t5v0__nor2_1
*I *783:Z O *D gf180mcu_fd_sc_mcu7t5v0__xor2_1
*CAP
1 *785:A2 0.00040769
2 *815:A2 0.000386769
3 *783:Z 0
4 *81:6 0.000794459
5 *785:A2 *761:A1 0
6 *785:A2 *763:A1 0
7 *785:A2 *885:RN 0.000151807
8 *785:A2 *139:20 0.000328552
9 *815:A2 *761:A1 0
10 *815:A2 *763:A1 0
11 *815:A2 *885:RN 5.24641e-05
12 *815:A2 *132:123 0
13 *865:D *785:A2 0.000328552
14 *882:D *785:A2 2.08795e-05
*RES
1 *783:Z *81:6 9 
2 *81:6 *815:A2 11.6 
3 *81:6 *785:A2 13.368 
*END

*D_NET *82 0.00120145
*CONN
*I *785:B I *D gf180mcu_fd_sc_mcu7t5v0__oai21_1
*I *784:ZN O *D gf180mcu_fd_sc_mcu7t5v0__nand2_1
*CAP
1 *785:B 5.84218e-05
2 *784:ZN 5.84218e-05
3 *785:B *761:A1 0.000626417
4 *785:B *761:A2 0.000367043
5 *882:D *785:B 9.11499e-05
*RES
1 *784:ZN *785:B 19.976 
*END

*D_NET *83 0.00028355
*CONN
*I *788:B I *D gf180mcu_fd_sc_mcu7t5v0__oai21_1
*I *786:ZN O *D gf180mcu_fd_sc_mcu7t5v0__nand3_1
*CAP
1 *788:B 6.85441e-05
2 *786:ZN 6.85441e-05
3 *788:B *866:CLK 0
4 *788:B *182:30 0.000113027
5 *788:B *191:22 2.87576e-05
6 *866:D *788:B 4.67771e-06
*RES
1 *786:ZN *788:B 9.624 
*END

*D_NET *84 0.00517516
*CONN
*I *840:A2 I *D gf180mcu_fd_sc_mcu7t5v0__oai22_1
*I *788:A2 I *D gf180mcu_fd_sc_mcu7t5v0__oai21_1
*I *787:ZN O *D gf180mcu_fd_sc_mcu7t5v0__nand2_1
*CAP
1 *840:A2 0.000997141
2 *788:A2 0.000566251
3 *787:ZN 3.6366e-05
4 *84:6 0.00159976
5 *788:A2 *766:A1 2.73715e-06
6 *788:A2 *867:RN 2.16732e-05
7 *788:A2 *928:I 0.000182208
8 *788:A2 *182:30 3.38251e-05
9 *788:A2 *182:39 1.36858e-05
10 *840:A2 *787:A2 4.95518e-05
11 *840:A2 *821:A3 0.000372387
12 *840:A2 *822:I 3.99956e-05
13 *840:A2 *824:A2 0.000396341
14 *840:A2 *840:B1 0.000454537
15 *840:A2 *104:8 6.50387e-05
16 *840:A2 *104:14 5.58913e-05
17 *840:A2 *133:31 8.14679e-05
18 *840:A2 *155:12 0.000103788
19 *857:D *840:A2 2.4028e-06
20 *876:D *840:A2 1.63544e-05
21 *65:14 *788:A2 0
22 *65:14 *840:A2 0
23 *65:20 *840:A2 4.13954e-05
24 *66:53 *840:A2 4.23591e-05
*RES
1 *787:ZN *84:6 4.812 
2 *84:6 *788:A2 8.868 
3 *84:6 *840:A2 13.444 
*END

*D_NET *85 0.0138742
*CONN
*I *840:B1 I *D gf180mcu_fd_sc_mcu7t5v0__oai22_1
*I *824:B I *D gf180mcu_fd_sc_mcu7t5v0__oai21_1
*I *826:A1 I *D gf180mcu_fd_sc_mcu7t5v0__aoi22_1
*I *791:A1 I *D gf180mcu_fd_sc_mcu7t5v0__nor2_1
*I *820:A2 I *D gf180mcu_fd_sc_mcu7t5v0__oai22_1
*I *789:ZN O *D gf180mcu_fd_sc_mcu7t5v0__nand2_1
*CAP
1 *840:B1 0.000587493
2 *824:B 3.19418e-05
3 *826:A1 0
4 *791:A1 0.000897167
5 *820:A2 0.00081452
6 *789:ZN 0.000100951
7 *85:55 0.000872039
8 *85:22 0.00185844
9 *85:16 0.000423646
10 *85:10 0.000630444
11 *791:A1 *826:B1 5.70116e-06
12 *791:A1 *866:CLK 5.59844e-05
13 *820:A2 *749:I 7.02954e-05
14 *820:A2 *820:B2 0
15 *820:A2 *826:B2 0.000727984
16 *820:A2 *878:CLK 0
17 *824:B *181:8 0.000256322
18 *840:B1 *821:A2 0.000284729
19 *840:B1 *821:A3 0.000406983
20 *840:B1 *822:I 9.7618e-05
21 *840:B1 *823:A1 3.50308e-05
22 *840:B1 *824:A2 9.423e-05
23 *840:B1 *106:8 0.000728829
24 *840:B1 *133:31 1.85523e-05
25 *840:B1 *153:29 0
26 *840:B1 *153:40 0
27 *840:B1 *154:27 0.000194522
28 *840:B1 *155:12 0.000103788
29 *840:B1 *172:22 3.24673e-05
30 *85:10 *181:8 6.41811e-05
31 *85:10 *191:22 0.000419276
32 *85:16 *188:10 0
33 *85:16 *191:22 2.43266e-05
34 *85:22 *826:B1 2.64063e-05
35 *85:22 *188:10 6.33007e-05
36 *85:22 *191:22 9.8328e-06
37 *85:55 *823:A1 0
38 *85:55 *181:8 0.000830576
39 *789:A2 *85:10 5.13977e-05
40 *789:A2 *85:55 0
41 *825:A4 *85:55 1.41447e-05
42 *840:A1 *840:B1 1.71326e-05
43 *840:A2 *840:B1 0.000454537
44 *877:D *820:A2 0
45 *878:D *820:A2 0.00103731
46 *878:D *85:22 0.000425304
47 *879:D *820:A2 0
48 *66:53 *824:B 0.000248317
49 *66:53 *85:55 0.000858474
*RES
1 *789:ZN *85:10 10.456 
2 *85:10 *85:16 6.372 
3 *85:16 *85:22 6.164 
4 *85:22 *820:A2 17.216 
5 *85:22 *791:A1 15.136 
6 *85:16 *826:A1 4.5 
7 *85:10 *85:55 8.036 
8 *85:55 *824:B 5.228 
9 *85:55 *840:B1 20.572 
*END

*D_NET *86 0.00257018
*CONN
*I *791:A2 I *D gf180mcu_fd_sc_mcu7t5v0__nor2_1
*I *790:ZN O *D gf180mcu_fd_sc_mcu7t5v0__nor2_1
*CAP
1 *791:A2 0.000289273
2 *790:ZN 0.000289273
3 *791:A2 *786:A3 2.08795e-05
4 *791:A2 *867:CLK 5.76275e-05
5 *791:A2 *182:22 0.00103922
6 *791:A2 *182:30 0
7 *791:A2 *216:14 0.000162991
8 *791:A2 *216:20 0.000710926
*RES
1 *790:ZN *791:A2 22.368 
*END

*D_NET *87 0.003551
*CONN
*I *795:A2 I *D gf180mcu_fd_sc_mcu7t5v0__xor2_1
*I *794:A2 I *D gf180mcu_fd_sc_mcu7t5v0__xnor2_1
*I *792:ZN O *D gf180mcu_fd_sc_mcu7t5v0__nand3_1
*CAP
1 *795:A2 0.000222895
2 *794:A2 0.000389595
3 *792:ZN 0.0001667
4 *794:A2 *792:A1 2.76367e-05
5 *794:A2 *797:A1 0.000343529
6 *794:A2 *844:A2 2.79795e-05
7 *794:A2 *126:41 0.000159376
8 *794:A2 *141:36 0.0007135
9 *795:A2 *795:A1 0.00101328
10 *795:A2 *132:93 0.000217188
11 *795:A2 *141:36 7.22679e-05
12 *793:A4 *794:A2 0.000197059
*RES
1 *792:ZN *794:A2 20.808 
2 *794:A2 *795:A2 12.016 
*END

*D_NET *88 0.00205513
*CONN
*I *799:A2 I *D gf180mcu_fd_sc_mcu7t5v0__xnor2_1
*I *800:A2 I *D gf180mcu_fd_sc_mcu7t5v0__xor2_1
*I *793:ZN O *D gf180mcu_fd_sc_mcu7t5v0__nand4_1
*CAP
1 *799:A2 0.000199367
2 *800:A2 8.94317e-05
3 *793:ZN 0.000123541
4 *88:8 0.00041234
5 *799:A2 *798:A4 0.00013467
6 *799:A2 *829:A1 0.000397755
7 *799:A2 *829:A2 2.14739e-05
8 *799:A2 *132:78 9.77509e-05
9 *799:A2 *132:82 8.43945e-05
10 *799:A2 *132:84 1.07369e-05
11 *799:A2 *141:36 2.46007e-05
12 *800:A2 *793:A2 2.37385e-05
13 *800:A2 *798:A4 0.000143493
14 *800:A2 *141:36 1.11474e-05
15 *88:8 *829:A1 9.41008e-05
16 *88:8 *112:18 0.000184188
17 *88:8 *132:93 2.39523e-06
*RES
1 *793:ZN *88:8 10.352 
2 *88:8 *800:A2 9.936 
3 *88:8 *799:A2 11.496 
*END

*D_NET *89 0.0020282
*CONN
*I *829:A1 I *D gf180mcu_fd_sc_mcu7t5v0__oai211_1
*I *794:ZN O *D gf180mcu_fd_sc_mcu7t5v0__xnor2_1
*CAP
1 *829:A1 0.000252951
2 *794:ZN 0.000252951
3 *829:A1 *798:A4 5.31759e-05
4 *829:A1 *829:A2 0.000365122
5 *829:A1 *829:C 0.000498816
6 *829:A1 *112:18 2.39047e-05
7 *829:A1 *132:84 5.33764e-05
8 *829:A1 *132:93 3.60467e-05
9 *799:A2 *829:A1 0.000397755
10 *88:8 *829:A1 9.41008e-05
*RES
1 *794:ZN *829:A1 21.536 
*END

*D_NET *90 0.00481567
*CONN
*I *796:A2 I *D gf180mcu_fd_sc_mcu7t5v0__nor2_1
*I *842:A2 I *D gf180mcu_fd_sc_mcu7t5v0__oai21_1
*I *795:Z O *D gf180mcu_fd_sc_mcu7t5v0__xor2_1
*CAP
1 *796:A2 0
2 *842:A2 0.00102292
3 *795:Z 0.000253607
4 *90:8 0.00127653
5 *842:A2 *833:B1 0.000197825
6 *842:A2 *839:A2 0.000875495
7 *842:A2 *839:B 8.8158e-06
8 *842:A2 *942:I 1.27019e-05
9 *90:8 *796:A1 0.000218585
10 *835:A1 *842:A2 0.00017298
11 *838:A3 *842:A2 0.000299804
12 *853:D *842:A2 4.1546e-05
13 *856:D *842:A2 2.81522e-06
14 *858:D *842:A2 0.000187119
15 *70:20 *842:A2 0.000244934
*RES
1 *795:Z *90:8 11.808 
2 *90:8 *842:A2 27.256 
3 *90:8 *796:A2 9 
*END

*D_NET *91 0.00478733
*CONN
*I *798:A4 I *D gf180mcu_fd_sc_mcu7t5v0__nor4_4
*I *797:ZN O *D gf180mcu_fd_sc_mcu7t5v0__nand2_1
*CAP
1 *798:A4 0.000861266
2 *797:ZN 0.000861266
3 *798:A4 *793:A2 2.19887e-05
4 *798:A4 *797:A2 5.23324e-05
5 *798:A4 *804:A1 0.000251575
6 *798:A4 *806:A1 0.000160159
7 *798:A4 *806:A2 0.00103922
8 *798:A4 *829:A2 0.00012761
9 *798:A4 *829:C 0.000243739
10 *798:A4 *930:I 0
11 *798:A4 *141:36 0
12 *798:A4 *142:10 0.000397744
13 *798:A4 *142:16 1.34679e-05
14 *798:A4 *212:12 0
15 *799:A2 *798:A4 0.00013467
16 *800:A2 *798:A4 0.000143493
17 *829:A1 *798:A4 5.31759e-05
18 *66:32 *798:A4 0.000425626
*RES
1 *797:ZN *798:A4 29.232 
*END

*D_NET *92 0.00469988
*CONN
*I *804:A2 I *D gf180mcu_fd_sc_mcu7t5v0__xnor2_1
*I *802:A2 I *D gf180mcu_fd_sc_mcu7t5v0__nand2_1
*I *803:A2 I *D gf180mcu_fd_sc_mcu7t5v0__xor2_1
*I *798:ZN O *D gf180mcu_fd_sc_mcu7t5v0__nor4_4
*CAP
1 *804:A2 0.000102836
2 *802:A2 0.000463531
3 *803:A2 0
4 *798:ZN 0.000311707
5 *92:6 0.000672402
6 *802:A2 *802:A1 0.000114849
7 *802:A2 *804:A1 7.87395e-06
8 *802:A2 *126:10 4.77174e-05
9 *802:A2 *126:20 3.17907e-05
10 *802:A2 *143:25 3.14958e-05
11 *804:A2 *804:A1 0.00067298
12 *804:A2 *829:B 2.39167e-05
13 *804:A2 *144:8 0
14 *92:6 *804:A1 0.00010861
15 *92:6 *829:B 0.00150538
16 *798:A3 *804:A2 0.000203739
17 *798:A3 *92:6 0.000367222
18 *870:D *802:A2 3.38251e-05
19 *870:D *92:6 0
*RES
1 *798:ZN *92:6 8.764 
2 *92:6 *803:A2 4.5 
3 *92:6 *802:A2 8.14 
4 *798:ZN *804:A2 10.768 
*END

*D_NET *93 0.000805113
*CONN
*I *829:A2 I *D gf180mcu_fd_sc_mcu7t5v0__oai211_1
*I *799:ZN O *D gf180mcu_fd_sc_mcu7t5v0__xnor2_1
*CAP
1 *829:A2 9.23021e-05
2 *799:ZN 9.23021e-05
3 *829:A2 *829:B 6.8199e-07
4 *829:A2 *112:18 0.000105621
5 *829:A2 *126:28 0
6 *798:A4 *829:A2 0.00012761
7 *799:A2 *829:A2 2.14739e-05
8 *829:A1 *829:A2 0.000365122
*RES
1 *799:ZN *829:A2 19.56 
*END

*D_NET *94 0.00554171
*CONN
*I *801:A2 I *D gf180mcu_fd_sc_mcu7t5v0__nor2_1
*I *844:A2 I *D gf180mcu_fd_sc_mcu7t5v0__oai21_1
*I *800:Z O *D gf180mcu_fd_sc_mcu7t5v0__xor2_1
*CAP
1 *801:A2 0
2 *844:A2 0.000954422
3 *800:Z 0.000419905
4 *94:12 0.00137433
5 *844:A2 *792:A1 6.31467e-05
6 *844:A2 *796:A1 4.87417e-05
7 *844:A2 *839:A2 0.000175078
8 *844:A2 *868:RN 0.00132524
9 *844:A2 *930:I 9.59114e-05
10 *844:A2 *126:41 6.26694e-05
11 *844:A2 *141:36 0
12 *94:12 *792:A2 0.000117685
13 *94:12 *113:26 0.000215142
14 *94:12 *212:43 7.02954e-05
15 *794:A2 *844:A2 2.79795e-05
16 *869:D *844:A2 0.000591167
*RES
1 *800:Z *94:12 7.828 
2 *94:12 *844:A2 23.796 
3 *94:12 *801:A2 4.5 
*END

*D_NET *95 0.00834961
*CONN
*I *806:A2 I *D gf180mcu_fd_sc_mcu7t5v0__xor2_1
*I *802:ZN O *D gf180mcu_fd_sc_mcu7t5v0__nand2_1
*CAP
1 *806:A2 0.000791353
2 *802:ZN 0.000791353
3 *806:A2 *802:A1 0.000353518
4 *806:A2 *804:A1 0.00037733
5 *806:A2 *805:A2 0.00226292
6 *806:A2 *806:A1 0.000102068
7 *806:A2 *807:A2 0.000617599
8 *806:A2 *850:A1 5.02917e-06
9 *806:A2 *913:I 0.000449698
10 *806:A2 *97:6 0.00067298
11 *806:A2 *142:10 0.000425015
12 *806:A2 *143:10 0.000267497
13 *806:A2 *143:25 0.00019404
14 *798:A4 *806:A2 0.00103922
*RES
1 *802:ZN *806:A2 32.664 
*END

*D_NET *96 0.00436496
*CONN
*I *829:B I *D gf180mcu_fd_sc_mcu7t5v0__oai211_1
*I *803:Z O *D gf180mcu_fd_sc_mcu7t5v0__xor2_1
*CAP
1 *829:B 0.000975414
2 *803:Z 0.000975414
3 *829:B *798:A2 0.000152316
4 *829:B *113:26 2.83242e-05
5 *829:B *126:28 0.000177804
6 *829:B *132:78 0
7 *829:B *142:10 0.00012667
8 *829:B *142:16 0.000139453
9 *829:B *144:8 0.000129211
10 *829:B *189:10 0
11 *829:B *212:12 0.000107912
12 *798:A3 *829:B 2.24654e-05
13 *804:A2 *829:B 2.39167e-05
14 *829:A2 *829:B 6.8199e-07
15 *870:D *829:B 0
16 *92:6 *829:B 0.00150538
*RES
1 *803:Z *829:B 28.92 
*END

*D_NET *97 0.0108909
*CONN
*I *805:A2 I *D gf180mcu_fd_sc_mcu7t5v0__nor2_1
*I *846:A2 I *D gf180mcu_fd_sc_mcu7t5v0__oai21_1
*I *804:ZN O *D gf180mcu_fd_sc_mcu7t5v0__xnor2_1
*CAP
1 *805:A2 0.000711191
2 *846:A2 0.000362365
3 *804:ZN 2.41482e-05
4 *97:6 0.0010977
5 *805:A2 *775:A2 0.000427051
6 *805:A2 *807:A1 0.000109342
7 *805:A2 *850:A1 3.17817e-05
8 *805:A2 *861:CLK 0.000316927
9 *805:A2 *913:I 0.000328552
10 *805:A2 *98:12 2.93608e-05
11 *805:A2 *126:20 1.27019e-05
12 *805:A2 *152:22 0.000112472
13 *805:A2 *175:85 1.71326e-05
14 *846:A2 *806:A1 0
15 *846:A2 *846:B 0.000591156
16 *846:A2 *870:RN 4.13292e-05
17 *846:A2 *871:CLK 0.000689365
18 *846:A2 *136:37 0.000689386
19 *846:A2 *189:19 1.25277e-05
20 *97:6 *913:I 0.000663752
21 *806:A2 *805:A2 0.00226292
22 *806:A2 *97:6 0.00067298
23 *860:D *846:A2 0
24 *870:D *805:A2 0.000280969
25 *871:D *805:A2 0.00140583
*RES
1 *804:ZN *97:6 6.268 
2 *97:6 *846:A2 18.596 
3 *97:6 *805:A2 25.252 
*END

*D_NET *98 0.00657514
*CONN
*I *807:A2 I *D gf180mcu_fd_sc_mcu7t5v0__nor2_1
*I *848:A2 I *D gf180mcu_fd_sc_mcu7t5v0__oai21_1
*I *806:Z O *D gf180mcu_fd_sc_mcu7t5v0__xor2_1
*CAP
1 *807:A2 0.000590514
2 *848:A2 0
3 *806:Z 0.00142533
4 *98:12 0.00201585
5 *807:A2 *802:A1 5.91282e-05
6 *807:A2 *850:A1 0.000151801
7 *807:A2 *850:A2 0
8 *807:A2 *143:10 0.000240504
9 *807:A2 *152:22 0
10 *98:12 *844:B 0
11 *98:12 *846:B 0
12 *98:12 *850:A1 1.07369e-05
13 *98:12 *861:CLK 0.000158826
14 *98:12 *870:RN 0.000241839
15 *98:12 *136:8 0.000149455
16 *98:12 *136:26 0.000119004
17 *98:12 *136:33 9.56679e-05
18 *98:12 *143:10 5.41656e-05
19 *805:A2 *98:12 2.93608e-05
20 *806:A2 *807:A2 0.000617599
21 *859:D *98:12 4.15898e-06
22 *861:D *98:12 0.000509988
23 *862:D *807:A2 0
24 *871:D *807:A2 0.000101206
25 *871:D *98:12 0
*RES
1 *806:Z *98:12 16.772 
2 *98:12 *848:A2 4.5 
3 *98:12 *807:A2 19.532 
*END

*D_NET *99 0.00104047
*CONN
*I *830:A1 I *D gf180mcu_fd_sc_mcu7t5v0__oai211_1
*I *808:Z O *D gf180mcu_fd_sc_mcu7t5v0__xor2_1
*CAP
1 *830:A1 0.000316727
2 *808:Z 0.000316727
3 *830:A1 *830:A2 3.16197e-05
4 *830:A1 *113:26 0.000234301
5 *830:A1 *211:26 7.84634e-05
6 *777:A2 *830:A1 0
7 *830:C *830:A1 6.26303e-05
*RES
1 *808:Z *830:A1 11.704 
*END

*D_NET *100 0.00521856
*CONN
*I *850:A2 I *D gf180mcu_fd_sc_mcu7t5v0__oai21_1
*I *810:A2 I *D gf180mcu_fd_sc_mcu7t5v0__nor2_1
*I *809:ZN O *D gf180mcu_fd_sc_mcu7t5v0__xnor2_1
*CAP
1 *850:A2 0.000869076
2 *810:A2 0.000892363
3 *809:ZN 0.00176144
4 *810:A2 *774:A1 0
5 *810:A2 *810:A1 0.000113016
6 *810:A2 *811:A1 0
7 *810:A2 *813:A2 0.000131575
8 *810:A2 *852:A2 5.83339e-05
9 *810:A2 *914:I 9.28617e-05
10 *810:A2 *175:29 0
11 *810:A2 *175:85 0
12 *810:A2 *197:23 8.59425e-06
13 *810:A2 *216:10 4.9065e-05
14 *850:A2 *830:B 0.000677628
15 *850:A2 *175:85 0.000170546
16 *850:A2 *211:26 8.14679e-05
17 *807:A2 *850:A2 0
18 *830:C *850:A2 6.3074e-05
19 *873:D *810:A2 0
20 *3:22 *810:A2 0.000249521
*RES
1 *809:ZN *810:A2 25.696 
2 *809:ZN *850:A2 25.488 
*END

*D_NET *101 0.000222599
*CONN
*I *830:A2 I *D gf180mcu_fd_sc_mcu7t5v0__oai211_1
*I *811:ZN O *D gf180mcu_fd_sc_mcu7t5v0__xnor2_1
*CAP
1 *830:A2 9.54898e-05
2 *811:ZN 9.54898e-05
3 *830:A1 *830:A2 3.16197e-05
*RES
1 *811:ZN *830:A2 9.728 
*END

*D_NET *102 0.00598944
*CONN
*I *852:A2 I *D gf180mcu_fd_sc_mcu7t5v0__oai21_1
*I *813:A2 I *D gf180mcu_fd_sc_mcu7t5v0__nor2_1
*I *812:Z O *D gf180mcu_fd_sc_mcu7t5v0__xor2_1
*CAP
1 *852:A2 0.000945708
2 *813:A2 0.000518391
3 *812:Z 0
4 *102:6 0.0014641
5 *813:A2 *813:A1 4.18157e-05
6 *813:A2 *132:33 0.000173362
7 *813:A2 *197:23 0.000752343
8 *852:A2 *776:A1 0.000942881
9 *852:A2 *147:12 0.000513523
10 *776:A2 *852:A2 2.76472e-05
11 *782:A2 *852:A2 0.000233056
12 *782:B *852:A2 1.19766e-05
13 *810:A2 *813:A2 0.000131575
14 *810:A2 *852:A2 5.83339e-05
15 *814:A1 *852:A2 2.75139e-05
16 *3:22 *813:A2 0.000147211
*RES
1 *812:Z *102:6 9 
2 *102:6 *813:A2 14.72 
3 *102:6 *852:A2 18.88 
*END

*D_NET *103 0.00340909
*CONN
*I *818:B I *D gf180mcu_fd_sc_mcu7t5v0__oai21_1
*I *816:ZN O *D gf180mcu_fd_sc_mcu7t5v0__nand3_1
*CAP
1 *818:B 0.000120054
2 *816:ZN 0.000120054
3 *818:B *748:I 0.000330362
4 *818:B *816:A1 0.00132961
5 *818:B *825:A3 0.000103788
6 *818:B *154:19 0.00118736
7 *818:B *181:8 0.000217862
*RES
1 *816:ZN *818:B 13.264 
*END

*D_NET *104 0.00509478
*CONN
*I *818:A2 I *D gf180mcu_fd_sc_mcu7t5v0__oai21_1
*I *828:A2 I *D gf180mcu_fd_sc_mcu7t5v0__oai31_1
*I *820:B1 I *D gf180mcu_fd_sc_mcu7t5v0__oai22_1
*I *817:ZN O *D gf180mcu_fd_sc_mcu7t5v0__nand2_1
*CAP
1 *818:A2 0
2 *828:A2 0.000296081
3 *820:B1 0.000180961
4 *817:ZN 0.000357437
5 *104:14 0.00104871
6 *104:8 0.000929104
7 *820:B1 *749:I 0
8 *820:B1 *820:B2 0.000450555
9 *820:B1 *133:10 0.000240535
10 *828:A2 *825:A1 2.504e-05
11 *828:A2 *878:RN 7.27859e-05
12 *828:A2 *188:12 0.000381081
13 *104:8 *824:A2 7.27893e-05
14 *104:14 *749:I 0
15 *104:14 *825:A1 0.00015249
16 *104:14 *133:10 3.646e-05
17 *104:14 *181:32 6.28659e-05
18 *840:A2 *104:8 6.50387e-05
19 *840:A2 *104:14 5.58913e-05
20 *876:D *104:14 0.00039949
21 *66:53 *104:8 0.000258114
22 *66:53 *104:14 9.35542e-06
*RES
1 *817:ZN *104:8 7.412 
2 *104:8 *104:14 9.492 
3 *104:14 *820:B1 11.6 
4 *104:14 *828:A2 11.808 
5 *104:8 *818:A2 4.5 
*END

*D_NET *105 0.00201818
*CONN
*I *820:B2 I *D gf180mcu_fd_sc_mcu7t5v0__oai22_1
*I *819:Z O *D gf180mcu_fd_sc_mcu7t5v0__xor2_1
*CAP
1 *820:B2 0.000399406
2 *819:Z 0.000399406
3 *820:B2 *820:A1 0
4 *820:B2 *876:RN 0.000203575
5 *820:B2 *133:10 0.000450555
6 *820:B2 *188:12 0.000114689
7 *820:A2 *820:B2 0
8 *820:B1 *820:B2 0.000450555
*RES
1 *819:Z *820:B2 22.16 
*END

*D_NET *106 0.00409755
*CONN
*I *822:I I *D gf180mcu_fd_sc_mcu7t5v0__clkinv_1
*I *823:A2 I *D gf180mcu_fd_sc_mcu7t5v0__nand2_1
*I *828:A3 I *D gf180mcu_fd_sc_mcu7t5v0__oai31_1
*I *821:ZN O *D gf180mcu_fd_sc_mcu7t5v0__nand3_1
*CAP
1 *822:I 0.000138431
2 *823:A2 0.000169334
3 *828:A3 0.000139766
4 *821:ZN 0
5 *106:8 0.00054721
6 *106:4 0.000376541
7 *822:I *172:22 0
8 *823:A2 *823:A1 0.000419276
9 *823:A2 *878:RN 0.000129604
10 *823:A2 *181:8 7.02352e-05
11 *823:A2 *191:22 3.42651e-05
12 *828:A3 *827:A2 0.000106439
13 *828:A3 *878:RN 0.000418233
14 *828:A3 *188:10 0.000115133
15 *106:8 *823:A1 1.62892e-05
16 *106:8 *827:A2 0.000269339
17 *106:8 *172:22 5.65788e-06
18 *106:8 *188:10 1.95034e-05
19 *824:A1 *106:8 5.33712e-05
20 *825:A4 *823:A2 0.000202476
21 *840:A2 *822:I 3.99956e-05
22 *840:B1 *822:I 9.7618e-05
23 *840:B1 *106:8 0.000728829
*RES
1 *821:ZN *106:4 4.5 
2 *106:4 *106:8 7.516 
3 *106:8 *828:A3 10.768 
4 *106:8 *823:A2 11.392 
5 *106:4 *822:I 5.436 
*END

*D_NET *107 0.000990785
*CONN
*I *824:A2 I *D gf180mcu_fd_sc_mcu7t5v0__oai21_1
*I *822:ZN O *D gf180mcu_fd_sc_mcu7t5v0__clkinv_1
*CAP
1 *824:A2 0.000160196
2 *822:ZN 0.000160196
3 *824:A2 *172:22 0.000107033
4 *840:A2 *824:A2 0.000396341
5 *840:B1 *824:A2 9.423e-05
6 *104:8 *824:A2 7.27893e-05
*RES
1 *822:ZN *824:A2 19.872 
*END

*D_NET *108 0.00012122
*CONN
*I *826:A2 I *D gf180mcu_fd_sc_mcu7t5v0__aoi22_1
*I *823:ZN O *D gf180mcu_fd_sc_mcu7t5v0__nand2_1
*CAP
1 *826:A2 6.06099e-05
2 *823:ZN 6.06099e-05
*RES
1 *823:ZN *826:A2 9.52 
*END

*D_NET *109 0.00334849
*CONN
*I *827:A2 I *D gf180mcu_fd_sc_mcu7t5v0__nand2_1
*I *824:ZN O *D gf180mcu_fd_sc_mcu7t5v0__oai21_1
*CAP
1 *827:A2 0.000346842
2 *824:ZN 0.000346842
3 *827:A2 *749:I 4.43462e-05
4 *827:A2 *825:A2 6.10573e-05
5 *827:A2 *827:A1 0.00012761
6 *827:A2 *828:B 0.00037585
7 *827:A2 *878:RN 0.000438819
8 *827:A2 *153:42 2.70192e-05
9 *827:A2 *156:27 0.000821169
10 *827:A2 *188:10 1.85596e-05
11 *824:A1 *827:A2 5.469e-05
12 *828:A3 *827:A2 0.000106439
13 *879:D *827:A2 0.00030991
14 *106:8 *827:A2 0.000269339
*RES
1 *824:ZN *827:A2 24.552 
*END

*D_NET *110 0.0013568
*CONN
*I *826:B1 I *D gf180mcu_fd_sc_mcu7t5v0__aoi22_1
*I *825:ZN O *D gf180mcu_fd_sc_mcu7t5v0__nand4_1
*CAP
1 *826:B1 0.000518487
2 *825:ZN 0.000518487
3 *826:B1 *878:RN 3.4596e-05
4 *826:B1 *879:RN 4.63426e-05
5 *826:B1 *156:10 0.000158012
6 *826:B1 *188:12 4.87717e-05
7 *826:B1 *191:22 0
8 *791:A1 *826:B1 5.70116e-06
9 *85:22 *826:B1 2.64063e-05
*RES
1 *825:ZN *826:B1 12.536 
*END

*D_NET *111 0.000751974
*CONN
*I *828:B I *D gf180mcu_fd_sc_mcu7t5v0__oai31_1
*I *827:ZN O *D gf180mcu_fd_sc_mcu7t5v0__nand2_1
*CAP
1 *828:B 1.36364e-07
2 *827:ZN 1.36364e-07
3 *828:B *827:A1 0.00037585
4 *827:A2 *828:B 0.00037585
*RES
1 *827:ZN *828:B 18.936 
*END

*D_NET *112 0.010972
*CONN
*I *831:A1 I *D gf180mcu_fd_sc_mcu7t5v0__and2_1
*I *833:B1 I *D gf180mcu_fd_sc_mcu7t5v0__oai32_1
*I *832:A1 I *D gf180mcu_fd_sc_mcu7t5v0__aoi21_1
*I *829:ZN O *D gf180mcu_fd_sc_mcu7t5v0__oai211_1
*CAP
1 *831:A1 0
2 *833:B1 0.000379644
3 *832:A1 0.000104932
4 *829:ZN 0.00092878
5 *112:29 0.000765182
6 *112:18 0.00141925
7 *832:A1 *751:I 0.000411574
8 *832:A1 *832:A2 0.000173839
9 *832:A1 *834:A1 0
10 *832:A1 *857:RN 1.26446e-05
11 *833:B1 *942:I 0.000154593
12 *833:B1 *125:21 0.000470834
13 *833:B1 *125:27 0.000235806
14 *112:18 *751:I 0.000450004
15 *112:18 *780:A1 0.000251178
16 *112:18 *793:A1 7.84307e-05
17 *112:18 *793:A2 0.000320012
18 *112:18 *832:A2 0.000207244
19 *112:18 *839:A2 0.000569964
20 *112:18 *868:RN 0.000135657
21 *112:18 *895:I 0.000113683
22 *112:18 *113:26 0.000441879
23 *112:18 *126:28 9.75902e-05
24 *112:18 *132:93 0
25 *112:18 *141:10 0.00111321
26 *112:18 *180:10 0.000528937
27 *112:29 *751:I 9.09967e-05
28 *112:29 *942:I 0.000118791
29 *780:A2 *112:18 2.84264e-05
30 *829:A1 *112:18 2.39047e-05
31 *829:A2 *112:18 0.000105621
32 *832:B *832:A1 1.57479e-05
33 *832:B *112:18 2.31734e-05
34 *835:A1 *833:B1 0.000103788
35 *838:A3 *833:B1 7.37285e-06
36 *842:A2 *833:B1 0.000197825
37 *856:D *833:B1 4.3736e-05
38 *910:I *833:B1 0.000188823
39 *910:I *112:29 0.000110509
40 *66:96 *112:29 0.00019491
41 *70:20 *833:B1 0.000169324
42 *88:8 *112:18 0.000184188
*RES
1 *829:ZN *112:18 26.084 
2 *112:18 *832:A1 6.06 
3 *112:18 *112:29 8.348 
4 *112:29 *833:B1 13.576 
5 *112:29 *831:A1 9 
*END

*D_NET *113 0.0142349
*CONN
*I *831:A2 I *D gf180mcu_fd_sc_mcu7t5v0__and2_1
*I *832:A2 I *D gf180mcu_fd_sc_mcu7t5v0__aoi21_1
*I *830:ZN O *D gf180mcu_fd_sc_mcu7t5v0__oai211_1
*CAP
1 *831:A2 0.000577195
2 *832:A2 0.000325527
3 *830:ZN 0.00188133
4 *113:26 0.00278405
5 *831:A2 *180:10 0
6 *832:A2 *857:RN 0.000331461
7 *113:26 *775:A2 0.000249015
8 *113:26 *798:A2 0.000143493
9 *113:26 *807:A1 0.000122244
10 *113:26 *869:CLK 0.00155961
11 *113:26 *927:I 0.000269917
12 *113:26 *126:28 0.000493714
13 *113:26 *132:69 9.82063e-05
14 *113:26 *132:78 0.000425354
15 *113:26 *141:10 0.000256312
16 *113:26 *142:16 0.000569975
17 *113:26 *152:22 6.04313e-05
18 *113:26 *175:8 7.02771e-05
19 *113:26 *175:85 0.000550736
20 *113:26 *189:10 0.000143476
21 *113:26 *211:26 0
22 *113:26 *212:12 0
23 *113:26 *212:19 0.000166571
24 *113:26 *212:43 7.56248e-06
25 *769:A3 *113:26 0
26 *780:A2 *831:A2 4.16074e-05
27 *780:A2 *113:26 0.000109456
28 *798:A3 *113:26 0.000187117
29 *829:B *113:26 2.83242e-05
30 *830:A1 *113:26 0.000234301
31 *832:A1 *832:A2 0.000173839
32 *832:B *113:26 3.3698e-05
33 *870:D *113:26 0.000139186
34 *66:32 *113:26 0.0011899
35 *66:96 *831:A2 0.000124479
36 *66:96 *113:26 2.22589e-05
37 *69:12 *831:A2 0
38 *94:12 *113:26 0.000215142
39 *112:18 *832:A2 0.000207244
40 *112:18 *113:26 0.000441879
*RES
1 *830:ZN *113:26 41.92 
2 *113:26 *832:A2 12.12 
3 *113:26 *831:A2 13.368 
*END

*D_NET *114 0.000491679
*CONN
*I *835:A2 I *D gf180mcu_fd_sc_mcu7t5v0__oai21_1
*I *831:Z O *D gf180mcu_fd_sc_mcu7t5v0__and2_1
*CAP
1 *835:A2 0.000192503
2 *831:Z 0.000192503
3 *835:A2 *160:8 8.75131e-05
4 *854:D *835:A2 1.91601e-05
5 *910:I *835:A2 0
*RES
1 *831:Z *835:A2 10.456 
*END

*D_NET *115 0.00793014
*CONN
*I *837:A2 I *D gf180mcu_fd_sc_mcu7t5v0__nor3_1
*I *833:A3 I *D gf180mcu_fd_sc_mcu7t5v0__oai32_1
*I *832:ZN O *D gf180mcu_fd_sc_mcu7t5v0__aoi21_1
*CAP
1 *837:A2 0.00052312
2 *833:A3 0
3 *832:ZN 0.000238378
4 *115:8 0.000761498
5 *837:A2 *837:A1 0.000379125
6 *837:A2 *842:B 6.26694e-05
7 *837:A2 *170:10 0.000239345
8 *837:A2 *170:25 2.76367e-05
9 *837:A2 *172:14 0.000301767
10 *837:A2 *205:12 0
11 *115:8 *751:I 8.66234e-05
12 *115:8 *835:B 0.000280581
13 *115:8 *170:10 0.00024276
14 *115:8 *172:14 0.00298965
15 *835:A1 *115:8 0.00179698
*RES
1 *832:ZN *115:8 16.8 
2 *115:8 *833:A3 9 
3 *115:8 *837:A2 13.784 
*END

*D_NET *116 0.000874465
*CONN
*I *835:B I *D gf180mcu_fd_sc_mcu7t5v0__oai21_1
*I *834:ZN O *D gf180mcu_fd_sc_mcu7t5v0__nand2_1
*CAP
1 *835:B 9.90509e-05
2 *834:ZN 9.90509e-05
3 *835:B *751:I 0.000177022
4 *835:B *172:14 0.00021876
5 *115:8 *835:B 0.000280581
*RES
1 *834:ZN *835:B 19.976 
*END

*D_NET *117 0.000346108
*CONN
*I *837:A3 I *D gf180mcu_fd_sc_mcu7t5v0__nor3_1
*I *836:ZN O *D gf180mcu_fd_sc_mcu7t5v0__nor2_1
*CAP
1 *837:A3 0.000132436
2 *836:ZN 0.000132436
3 *837:A3 *836:A1 5.13977e-05
4 *837:A3 *205:12 0
5 *836:A2 *837:A3 2.98389e-05
*RES
1 *836:ZN *837:A3 10.04 
*END

*D_NET *118 0.00210074
*CONN
*I *839:B I *D gf180mcu_fd_sc_mcu7t5v0__oai31_1
*I *838:ZN O *D gf180mcu_fd_sc_mcu7t5v0__nand3_1
*CAP
1 *839:B 0.00103161
2 *838:ZN 0.00103161
3 *839:B *833:A2 1.80494e-05
4 *839:B *838:A1 2.39523e-06
5 *838:A3 *839:B 8.27233e-06
6 *842:A2 *839:B 8.8158e-06
*RES
1 *838:ZN *839:B 32.616 
*END

*D_NET *119 0.0051937
*CONN
*I *842:B I *D gf180mcu_fd_sc_mcu7t5v0__oai21_1
*I *841:ZN O *D gf180mcu_fd_sc_mcu7t5v0__nand2_1
*CAP
1 *842:B 0.000978991
2 *841:ZN 0.000978991
3 *842:B *833:A2 5.36847e-05
4 *842:B *842:A1 0.000242809
5 *842:B *856:RN 0.000178725
6 *842:B *942:I 0
7 *842:B *170:25 0.000699172
8 *842:B *172:14 2.17484e-05
9 *842:B *185:12 8.02278e-05
10 *842:B *185:16 0.000235781
11 *842:B *205:12 0.000102068
12 *836:A2 *842:B 0.000720816
13 *837:A2 *842:B 6.26694e-05
14 *853:D *842:B 6.32895e-05
15 *856:D *842:B 2.76367e-05
16 *858:D *842:B 0.000490814
17 *924:I *842:B 0.000256274
*RES
1 *841:ZN *842:B 30.376 
*END

*D_NET *120 0.00116811
*CONN
*I *844:B I *D gf180mcu_fd_sc_mcu7t5v0__oai21_1
*I *843:ZN O *D gf180mcu_fd_sc_mcu7t5v0__nand2_1
*CAP
1 *844:B 0.000176857
2 *843:ZN 0.000176857
3 *844:B *844:A1 4.90573e-05
4 *844:B *851:A2 0.000410048
5 *844:B *186:10 0.000355286
6 *98:12 *844:B 0
*RES
1 *843:ZN *844:B 20.08 
*END

*D_NET *121 0.0022465
*CONN
*I *846:B I *D gf180mcu_fd_sc_mcu7t5v0__oai21_1
*I *845:ZN O *D gf180mcu_fd_sc_mcu7t5v0__nand2_1
*CAP
1 *846:B 0.000410271
2 *845:ZN 0.000410271
3 *846:B *851:A2 0.000665703
4 *846:A2 *846:B 0.000591156
5 *860:D *846:B 0
6 *871:D *846:B 0.000169099
7 *98:12 *846:B 0
*RES
1 *845:ZN *846:B 22.576 
*END

*D_NET *122 0.000169708
*CONN
*I *848:B I *D gf180mcu_fd_sc_mcu7t5v0__oai21_1
*I *847:ZN O *D gf180mcu_fd_sc_mcu7t5v0__nand2_1
*CAP
1 *848:B 8.48539e-05
2 *847:ZN 8.48539e-05
3 *871:D *848:B 0
*RES
1 *847:ZN *848:B 9.728 
*END

*D_NET *123 0.000376803
*CONN
*I *850:B I *D gf180mcu_fd_sc_mcu7t5v0__oai21_1
*I *849:ZN O *D gf180mcu_fd_sc_mcu7t5v0__nand2_1
*CAP
1 *850:B 0.000188402
2 *849:ZN 0.000188402
3 *850:B *143:10 0
*RES
1 *849:ZN *850:B 19.56 
*END

*D_NET *124 0.000339097
*CONN
*I *852:B I *D gf180mcu_fd_sc_mcu7t5v0__oai21_1
*I *851:ZN O *D gf180mcu_fd_sc_mcu7t5v0__nand2_1
*CAP
1 *852:B 0.000169549
2 *851:ZN 0.000169549
3 *782:B *852:B 0
*RES
1 *851:ZN *852:B 19.56 
*END

*D_NET *125 0.00931737
*CONN
*I *839:A1 I *D gf180mcu_fd_sc_mcu7t5v0__oai31_1
*I *837:A1 I *D gf180mcu_fd_sc_mcu7t5v0__nor3_1
*I *833:A1 I *D gf180mcu_fd_sc_mcu7t5v0__oai32_1
*I *779:A1 I *D gf180mcu_fd_sc_mcu7t5v0__nor2_1
*I *745:ZN O *D gf180mcu_fd_sc_mcu7t5v0__clkinv_1
*CAP
1 *839:A1 0
2 *837:A1 0.000457096
3 *833:A1 7.81106e-05
4 *779:A1 0.00026577
5 *745:ZN 0.000175007
6 *125:27 0.000632171
7 *125:21 0.000260389
8 *125:6 0.000604203
9 *779:A1 *170:10 0.00017298
10 *833:A1 *135:22 3.88716e-05
11 *837:A1 *942:I 0.000857333
12 *125:27 *942:I 0.000180208
13 *833:B1 *125:21 0.000470834
14 *833:B1 *125:27 0.000235806
15 *836:A2 *837:A1 2.46831e-05
16 *837:A2 *837:A1 0.000379125
17 *838:A3 *779:A1 4.6157e-05
18 *838:A3 *125:27 3.57634e-06
19 *855:D *837:A1 0.00122833
20 *856:D *833:A1 0.00024523
21 *856:D *125:27 0.000316535
22 *868:D *125:6 2.59233e-05
23 *910:I *125:21 0.000103092
24 *956:I *125:6 0.000528065
25 *956:I *125:21 0
26 *66:96 *125:21 5.23942e-06
27 *69:12 *779:A1 0.000281495
28 *69:12 *125:6 0.00033888
29 *70:20 *837:A1 0.000185667
30 *70:20 *125:21 9.11686e-06
31 *70:20 *125:27 0.00017139
32 *78:6 *779:A1 0.000892298
33 *78:6 *125:6 0.000103788
*RES
1 *745:ZN *125:6 7.1 
2 *125:6 *779:A1 7.828 
3 *125:6 *125:21 10.56 
4 *125:21 *125:27 5.956 
5 *125:27 *833:A1 9.728 
6 *125:27 *837:A1 15.032 
7 *125:21 *839:A1 4.5 
*END

*D_NET *126 0.0140213
*CONN
*I *775:A1 I *D gf180mcu_fd_sc_mcu7t5v0__nor4_4
*I *772:A1 I *D gf180mcu_fd_sc_mcu7t5v0__nor3_2
*I *793:A1 I *D gf180mcu_fd_sc_mcu7t5v0__nand4_1
*I *839:A2 I *D gf180mcu_fd_sc_mcu7t5v0__oai31_1
*I *792:A1 I *D gf180mcu_fd_sc_mcu7t5v0__nand3_1
*I *746:ZN O *D gf180mcu_fd_sc_mcu7t5v0__clkinv_1
*CAP
1 *775:A1 8.48539e-05
2 *772:A1 0
3 *793:A1 2.6355e-05
4 *839:A2 0.00108391
5 *792:A1 5.62478e-05
6 *746:ZN 0.000334572
7 *126:41 0.00121004
8 *126:28 0.00083009
9 *126:20 0.00125053
10 *126:10 0.000995893
11 *793:A1 *132:93 1.78817e-06
12 *839:A2 *796:A1 0.000754501
13 *839:A2 *868:RN 0.000603848
14 *839:A2 *132:93 3.30133e-05
15 *126:10 *152:14 1.85523e-05
16 *126:20 *773:A3 3.4596e-05
17 *126:20 *775:A2 0.000613615
18 *126:28 *773:A3 0.000236842
19 *126:28 *793:A2 4.07927e-05
20 *126:28 *141:10 5.57504e-05
21 *126:28 *141:19 0.000103788
22 *126:28 *142:16 0.000560747
23 *126:28 *189:10 0.0004162
24 *126:28 *212:12 1.23682e-05
25 *126:28 *212:19 6.18411e-06
26 *777:A2 *126:10 0.000180809
27 *793:A4 *792:A1 0.000280581
28 *794:A2 *792:A1 2.76367e-05
29 *794:A2 *126:41 0.000159376
30 *802:A2 *126:10 4.77174e-05
31 *802:A2 *126:20 3.17907e-05
32 *805:A2 *126:20 1.27019e-05
33 *829:A2 *126:28 0
34 *829:B *126:28 0.000177804
35 *842:A2 *839:A2 0.000875495
36 *844:A2 *792:A1 6.31467e-05
37 *844:A2 *839:A2 0.000175078
38 *844:A2 *126:41 6.26694e-05
39 *870:D *126:20 0.000709641
40 *871:D *126:10 6.062e-05
41 *66:14 *126:20 0.000172496
42 *66:14 *126:28 8.44565e-06
43 *66:32 *126:28 0.000370555
44 *112:18 *793:A1 7.84307e-05
45 *112:18 *839:A2 0.000569964
46 *112:18 *126:28 9.75902e-05
47 *113:26 *126:28 0.000493714
*RES
1 *746:ZN *126:10 7.516 
2 *126:10 *126:20 15.76 
3 *126:20 *126:28 13.132 
4 *126:28 *792:A1 9.936 
5 *126:28 *126:41 5.644 
6 *126:41 *839:A2 35.916 
7 *126:41 *793:A1 4.812 
8 *126:20 *772:A1 4.5 
9 *126:10 *775:A1 5.228 
*END

*D_NET *127 0.00393633
*CONN
*I *773:A3 I *D gf180mcu_fd_sc_mcu7t5v0__nand4_1
*I *798:A2 I *D gf180mcu_fd_sc_mcu7t5v0__nor4_4
*I *747:ZN O *D gf180mcu_fd_sc_mcu7t5v0__clkinv_1
*CAP
1 *773:A3 0.000488671
2 *798:A2 3.47017e-05
3 *747:ZN 0
4 *127:4 0.000523372
5 *773:A3 *767:A1 0
6 *773:A3 *786:A3 0.000271764
7 *773:A3 *152:37 0.000882681
8 *773:A3 *189:10 8.10026e-05
9 *773:A3 *212:19 0.00108689
10 *829:B *798:A2 0.000152316
11 *113:26 *798:A2 0.000143493
12 *126:20 *773:A3 3.4596e-05
13 *126:28 *773:A3 0.000236842
*RES
1 *747:ZN *127:4 4.5 
2 *127:4 *798:A2 14.436 
3 *127:4 *773:A3 19.532 
*END

*D_NET *128 0.00220223
*CONN
*I *819:A2 I *D gf180mcu_fd_sc_mcu7t5v0__xor2_1
*I *820:A1 I *D gf180mcu_fd_sc_mcu7t5v0__oai22_1
*I *748:ZN O *D gf180mcu_fd_sc_mcu7t5v0__clkinv_1
*CAP
1 *819:A2 0.000155744
2 *820:A1 0.000406755
3 *748:ZN 0
4 *128:6 0.000562499
5 *819:A2 *748:I 0.000648737
6 *820:B2 *820:A1 0
7 *877:D *820:A1 0.000428493
*RES
1 *748:ZN *128:6 9 
2 *128:6 *820:A1 12.12 
3 *128:6 *819:A2 10.976 
*END

*D_NET *129 0.00293394
*CONN
*I *826:B2 I *D gf180mcu_fd_sc_mcu7t5v0__aoi22_1
*I *749:ZN O *D gf180mcu_fd_sc_mcu7t5v0__clkinv_1
*CAP
1 *826:B2 0.000356776
2 *749:ZN 0.000356776
3 *820:A2 *826:B2 0.000727984
4 *878:D *826:B2 0.00149241
*RES
1 *749:ZN *826:B2 23.408 
*END

*D_NET *130 0.00195553
*CONN
*I *833:A2 I *D gf180mcu_fd_sc_mcu7t5v0__oai32_1
*I *750:ZN O *D gf180mcu_fd_sc_mcu7t5v0__clkinv_1
*CAP
1 *833:A2 0.000461045
2 *750:ZN 0.000461045
3 *833:A2 *838:A1 0.000502966
4 *833:A2 *135:22 0.000364151
5 *838:A3 *833:A2 0
6 *839:B *833:A2 1.80494e-05
7 *842:B *833:A2 5.36847e-05
8 *853:D *833:A2 8.42528e-05
9 *856:D *833:A2 1.03327e-05
*RES
1 *750:ZN *833:A2 13.264 
*END

*D_NET *131 0.00180146
*CONN
*I *840:B2 I *D gf180mcu_fd_sc_mcu7t5v0__oai22_1
*I *751:ZN O *D gf180mcu_fd_sc_mcu7t5v0__clkinv_1
*CAP
1 *840:B2 0.000309431
2 *751:ZN 0.000309431
3 *66:81 *840:B2 0.000556932
4 *66:96 *840:B2 0.000625666
*RES
1 *751:ZN *840:B2 21.224 
*END

*D_NET *132 0.0168639
*CONN
*I *901:I I *D gf180mcu_fd_sc_mcu7t5v0__clkbuf_16
*I *895:I I *D gf180mcu_fd_sc_mcu7t5v0__clkbuf_16
*I *902:I I *D gf180mcu_fd_sc_mcu7t5v0__clkbuf_16
*I *898:I I *D gf180mcu_fd_sc_mcu7t5v0__clkbuf_16
*I *897:I I *D gf180mcu_fd_sc_mcu7t5v0__clkbuf_16
*I *900:I I *D gf180mcu_fd_sc_mcu7t5v0__clkbuf_16
*I *899:I I *D gf180mcu_fd_sc_mcu7t5v0__clkbuf_16
*I *896:I I *D gf180mcu_fd_sc_mcu7t5v0__clkbuf_16
*I *894:Z O *D gf180mcu_fd_sc_mcu7t5v0__clkbuf_16
*CAP
1 *901:I 9.11948e-05
2 *895:I 0.000177395
3 *902:I 0.000118393
4 *898:I 0
5 *897:I 0.000225458
6 *900:I 0.000177331
7 *899:I 0
8 *896:I 5.89049e-05
9 *894:Z 0.000316894
10 *132:160 0.00038759
11 *132:155 0.000414789
12 *132:123 0.000346174
13 *132:114 0.000414407
14 *132:93 0.000642006
15 *132:84 0.000675486
16 *132:82 0.00017547
17 *132:78 0.000800346
18 *132:69 0.000777455
19 *132:53 0.000592405
20 *132:48 0.000658301
21 *132:37 0.000293389
22 *132:33 0.00115929
23 *132:17 0.000455309
24 *132:13 0.00154207
25 *132:8 0.00035063
26 *895:I *868:RN 0.000466399
27 *895:I *141:10 2.33824e-05
28 *895:I *180:10 7.91166e-06
29 *896:I *766:A1 0.00011486
30 *897:I *868:RN 0.000134173
31 *901:I *211:26 1.50543e-05
32 *132:8 *767:A1 9.95226e-05
33 *132:8 *187:16 6.34017e-05
34 *132:17 *766:A1 0.000405116
35 *132:17 *134:12 0
36 *132:17 *134:21 4.42271e-06
37 *132:17 *187:16 0
38 *132:33 *767:A1 0
39 *132:33 *875:CLK 0.000689367
40 *132:33 *134:21 1.96181e-06
41 *132:33 *187:16 1.40331e-05
42 *132:53 *874:CLK 3.07284e-05
43 *132:53 *140:16 3.2098e-05
44 *132:53 *176:42 3.72303e-05
45 *132:69 *152:22 4.58312e-05
46 *132:78 *798:A1 9.34334e-05
47 *132:78 *870:CLK 0.000190584
48 *132:78 *144:8 0
49 *132:78 *152:22 1.42118e-05
50 *132:78 *212:12 2.68371e-05
51 *132:78 *212:19 2.61227e-05
52 *132:93 *795:A1 3.98821e-05
53 *132:93 *868:RN 0.000277987
54 *132:114 *140:16 4.00834e-05
55 *132:123 *763:A1 0.000216423
56 *132:123 *764:A2 1.78817e-06
57 *132:123 *140:16 0.000106515
58 *132:123 *211:26 0
59 *132:155 *211:26 4.52738e-05
60 *132:160 *211:26 7.3167e-05
61 *773:A4 *896:I 1.70366e-05
62 *773:A4 *132:17 1.48728e-05
63 *783:A2 *901:I 0.000137246
64 *783:A2 *132:160 0.000528106
65 *793:A1 *132:93 1.78817e-06
66 *795:A2 *132:93 0.000217188
67 *799:A2 *132:78 9.77509e-05
68 *799:A2 *132:82 8.43945e-05
69 *799:A2 *132:84 1.07369e-05
70 *813:A2 *132:33 0.000173362
71 *815:A2 *132:123 0
72 *829:A1 *132:84 5.33764e-05
73 *829:A1 *132:93 3.60467e-05
74 *829:B *132:78 0
75 *839:A2 *132:93 3.30133e-05
76 *875:D *901:I 1.28221e-05
77 *875:D *132:33 0
78 *875:D *132:37 0
79 *875:D *132:48 0
80 *875:D *132:160 0.000282184
81 *885:D *132:114 0.000131098
82 *885:D *132:123 3.29501e-05
83 *3:22 *132:33 0
84 *3:22 *132:37 0
85 *3:22 *132:48 0
86 *3:22 *132:53 0
87 *79:10 *897:I 0.000134173
88 *79:10 *132:93 3.76225e-05
89 *88:8 *132:93 2.39523e-06
90 *112:18 *895:I 0.000113683
91 *112:18 *132:93 0
92 *113:26 *132:69 9.82063e-05
93 *113:26 *132:78 0.000425354
*RES
1 *894:Z *132:8 6.164 
2 *132:8 *132:13 0.52 
3 *132:13 *132:17 3.51743 
4 *132:17 *896:I 5.24657 
5 *132:13 *132:33 9.11857 
6 *132:33 *132:37 0.865429 
7 *132:37 *899:I 4.5 
8 *132:37 *132:48 1.352 
9 *132:48 *132:53 3.64 
10 *132:53 *900:I 5.436 
11 *894:Z *132:69 5.32829 
12 *132:69 *132:78 6.41086 
13 *132:78 *132:82 0.768857 
14 *132:82 *132:84 0.776286 
15 *132:84 *132:93 5.07371 
16 *132:93 *897:I 5.41 
17 *132:82 *898:I 4.5 
18 *900:I *132:114 5.436 
19 *132:114 *132:123 7.828 
20 *132:123 *902:I 9 
21 *897:I *895:I 11.184 
22 *902:I *132:155 5.436 
23 *132:155 *132:160 4.264 
24 *132:160 *901:I 5.436 
*END

*D_NET *133 0.00893344
*CONN
*I *879:CLK I *D gf180mcu_fd_sc_mcu7t5v0__dffrnq_1
*I *869:CLK I *D gf180mcu_fd_sc_mcu7t5v0__dffrnq_1
*I *876:CLK I *D gf180mcu_fd_sc_mcu7t5v0__dffrnq_1
*I *857:CLK I *D gf180mcu_fd_sc_mcu7t5v0__dffrnq_1
*I *878:CLK I *D gf180mcu_fd_sc_mcu7t5v0__dffrnq_1
*I *877:CLK I *D gf180mcu_fd_sc_mcu7t5v0__dffrnq_1
*I *895:Z O *D gf180mcu_fd_sc_mcu7t5v0__clkbuf_16
*CAP
1 *879:CLK 0.000483787
2 *869:CLK 0.000724065
3 *876:CLK 0.000296996
4 *857:CLK 0
5 *878:CLK 0.000736528
6 *877:CLK 0.000202342
7 *895:Z 0.00136294
8 *133:31 0.000495538
9 *133:10 0.000895416
10 *869:CLK *172:22 0
11 *869:CLK *181:32 0.00036321
12 *876:CLK *153:29 0
13 *769:A3 *869:CLK 9.88854e-06
14 *780:A2 *869:CLK 0.000199998
15 *820:A2 *878:CLK 0
16 *820:B1 *133:10 0.000240535
17 *820:B2 *133:10 0.000450555
18 *840:A1 *133:31 2.19717e-05
19 *840:A2 *133:31 8.14679e-05
20 *840:B1 *133:31 1.85523e-05
21 *857:D *876:CLK 6.86751e-05
22 *857:D *133:31 0.000119835
23 *876:D *876:CLK 5.91254e-05
24 *876:D *133:31 0.000402429
25 *877:D *877:CLK 2.38865e-05
26 *878:D *878:CLK 7.87395e-06
27 *878:D *879:CLK 0
28 *879:D *879:CLK 7.17602e-05
29 *104:14 *133:10 3.646e-05
30 *113:26 *869:CLK 0.00155961
*RES
1 *895:Z *133:10 18.18 
2 *133:10 *877:CLK 5.852 
3 *133:10 *878:CLK 6.268 
4 *895:Z *133:31 7.308 
5 *133:31 *857:CLK 4.5 
6 *133:31 *876:CLK 6.788 
7 *895:Z *869:CLK 25.696 
8 *878:CLK *879:CLK 12.744 
*END

*D_NET *134 0.0133466
*CONN
*I *870:CLK I *D gf180mcu_fd_sc_mcu7t5v0__dffrnq_1
*I *875:CLK I *D gf180mcu_fd_sc_mcu7t5v0__dffrnq_1
*I *872:CLK I *D gf180mcu_fd_sc_mcu7t5v0__dffrnq_1
*I *867:CLK I *D gf180mcu_fd_sc_mcu7t5v0__dffrnq_1
*I *866:CLK I *D gf180mcu_fd_sc_mcu7t5v0__dffrnq_1
*I *903:I I *D gf180mcu_fd_sc_mcu7t5v0__clkbuf_2
*I *896:Z O *D gf180mcu_fd_sc_mcu7t5v0__clkbuf_16
*CAP
1 *870:CLK 0.000122135
2 *875:CLK 0.00090219
3 *872:CLK 0.000134091
4 *867:CLK 0.000333654
5 *866:CLK 0.000428832
6 *903:I 0
7 *896:Z 0.000504427
8 *134:29 0.00111778
9 *134:25 0.000926024
10 *134:21 0.00157409
11 *134:12 0.000617556
12 *866:CLK *786:A3 0.000966936
13 *866:CLK *182:22 2.46717e-05
14 *866:CLK *182:30 0
15 *870:CLK *798:A1 0.000190584
16 *872:CLK *182:22 0.000663763
17 *875:CLK *767:A1 2.43345e-05
18 *875:CLK *773:A2 0
19 *875:CLK *872:RN 0.00041108
20 *875:CLK *145:17 0
21 *875:CLK *187:16 0.000438819
22 *875:CLK *197:23 0.000288127
23 *875:CLK *217:21 4.42519e-05
24 *134:12 *767:A1 0
25 *134:12 *786:A3 0.000255956
26 *134:12 *187:16 0.000249521
27 *134:12 *217:21 0
28 *134:21 *766:A1 0.00014798
29 *134:21 *187:16 2.38656e-05
30 *134:21 *217:8 0.000256508
31 *134:25 *790:A2 0.000145442
32 *134:25 *217:21 3.80112e-05
33 *134:29 *182:22 0.000373803
34 *773:A4 *134:12 0.000497696
35 *788:B *866:CLK 0
36 *791:A1 *866:CLK 5.59844e-05
37 *791:A2 *867:CLK 5.76275e-05
38 *866:D *866:CLK 8.75081e-05
39 *867:D *866:CLK 0
40 *867:D *867:CLK 0.00052527
41 *875:D *875:CLK 0
42 *894:I *134:21 3.03076e-06
43 *3:22 *134:21 2.86953e-05
44 *132:17 *134:12 0
45 *132:17 *134:21 4.42271e-06
46 *132:33 *875:CLK 0.000689367
47 *132:33 *134:21 1.96181e-06
48 *132:78 *870:CLK 0.000190584
*RES
1 *896:Z *134:12 17.868 
2 *134:12 *903:I 4.5 
3 *134:12 *134:21 6.892 
4 *134:21 *134:25 7.516 
5 *134:25 *134:29 3.328 
6 *134:29 *866:CLK 8.972 
7 *134:29 *867:CLK 17.14 
8 *134:25 *872:CLK 6.268 
9 *134:21 *875:CLK 18.672 
10 *896:Z *870:CLK 10.664 
*END

*D_NET *135 0.00739021
*CONN
*I *858:CLK I *D gf180mcu_fd_sc_mcu7t5v0__dffrnq_1
*I *855:CLK I *D gf180mcu_fd_sc_mcu7t5v0__dffrnq_1
*I *856:CLK I *D gf180mcu_fd_sc_mcu7t5v0__dffrnq_1
*I *853:CLK I *D gf180mcu_fd_sc_mcu7t5v0__dffrnq_1
*I *854:CLK I *D gf180mcu_fd_sc_mcu7t5v0__dffrnq_1
*I *904:I I *D gf180mcu_fd_sc_mcu7t5v0__clkbuf_2
*I *897:Z O *D gf180mcu_fd_sc_mcu7t5v0__clkbuf_16
*CAP
1 *858:CLK 0
2 *855:CLK 0
3 *856:CLK 0
4 *853:CLK 0.000139846
5 *854:CLK 0.000270292
6 *904:I 0.000124954
7 *897:Z 0.000251253
8 *135:24 0.000410138
9 *135:22 0.000325525
10 *135:20 0.000462244
11 *135:18 0.000263018
12 *853:CLK *838:A1 0.000560747
13 *853:CLK *842:A1 8.87924e-05
14 *854:CLK *842:A1 0.000199834
15 *854:CLK *172:14 5.6943e-05
16 *854:CLK *184:8 0
17 *135:18 *838:A1 7.60693e-05
18 *135:18 *868:CLK 0.000173451
19 *135:20 *838:A1 0.000420257
20 *135:20 *868:CLK 6.53438e-05
21 *135:22 *838:A1 0.000330746
22 *833:A1 *135:22 3.88716e-05
23 *833:A2 *135:22 0.000364151
24 *836:A2 *853:CLK 0.00037438
25 *836:A2 *854:CLK 0.00112106
26 *856:D *853:CLK 3.4596e-05
27 *856:D *135:22 1.19708e-05
28 *868:D *904:I 5.60123e-05
29 *70:20 *135:20 0.000906201
30 *70:20 *135:22 0.000263507
*RES
1 *897:Z *904:I 9.936 
2 *897:Z *135:18 5.852 
3 *135:18 *135:20 3.016 
4 *135:20 *135:22 3.016 
5 *135:22 *135:24 4.5 
6 *135:24 *854:CLK 12.848 
7 *135:24 *853:CLK 11.288 
8 *135:22 *856:CLK 4.5 
9 *135:20 *855:CLK 4.5 
10 *135:18 *858:CLK 4.5 
*END

*D_NET *136 0.0106817
*CONN
*I *861:CLK I *D gf180mcu_fd_sc_mcu7t5v0__dffrnq_1
*I *871:CLK I *D gf180mcu_fd_sc_mcu7t5v0__dffrnq_1
*I *905:I I *D gf180mcu_fd_sc_mcu7t5v0__clkbuf_2
*I *860:CLK I *D gf180mcu_fd_sc_mcu7t5v0__dffrnq_1
*I *859:CLK I *D gf180mcu_fd_sc_mcu7t5v0__dffrnq_1
*I *868:CLK I *D gf180mcu_fd_sc_mcu7t5v0__dffrnq_1
*I *898:Z O *D gf180mcu_fd_sc_mcu7t5v0__clkbuf_16
*CAP
1 *861:CLK 0.000303756
2 *871:CLK 0.000161425
3 *905:I 0
4 *860:CLK 0
5 *859:CLK 0
6 *868:CLK 0.000448834
7 *898:Z 0
8 *136:37 0.000284873
9 *136:33 0.000537006
10 *136:26 0.000201628
11 *136:8 0.000848424
12 *136:4 0.000491416
13 *861:CLK *870:RN 0.000826754
14 *861:CLK *913:I 0.000129593
15 *868:CLK *771:A1 0.000276007
16 *868:CLK *796:A1 5.13977e-05
17 *871:CLK *851:A2 0.00055766
18 *871:CLK *171:12 0.00055766
19 *136:8 *796:A1 3.69129e-05
20 *136:8 *806:A1 0.00103614
21 *136:26 *806:A1 0.000541508
22 *136:26 *913:I 3.10787e-05
23 *136:33 *913:I 0.000220496
24 *805:A2 *861:CLK 0.000316927
25 *846:A2 *871:CLK 0.000689365
26 *846:A2 *136:37 0.000689386
27 *859:D *136:8 4.38831e-05
28 *860:D *871:CLK 0
29 *860:D *136:37 0
30 *868:D *868:CLK 0.0002308
31 *70:20 *868:CLK 0.000406972
32 *98:12 *861:CLK 0.000158826
33 *98:12 *136:8 0.000149455
34 *98:12 *136:26 0.000119004
35 *98:12 *136:33 9.56679e-05
36 *135:18 *868:CLK 0.000173451
37 *135:20 *868:CLK 6.53438e-05
*RES
1 *898:Z *136:4 4.5 
2 *136:4 *136:8 4.576 
3 *136:8 *868:CLK 9.596 
4 *136:8 *859:CLK 4.5 
5 *136:4 *136:26 1.768 
6 *136:26 *860:CLK 4.5 
7 *136:26 *136:33 1.56 
8 *136:33 *136:37 6.268 
9 *136:37 *905:I 9 
10 *136:37 *871:CLK 12.328 
11 *136:33 *861:CLK 8.972 
*END

*D_NET *137 0.00653029
*CONN
*I *889:CLK I *D gf180mcu_fd_sc_mcu7t5v0__dffrnq_1
*I *873:CLK I *D gf180mcu_fd_sc_mcu7t5v0__dffrnq_1
*I *906:I I *D gf180mcu_fd_sc_mcu7t5v0__clkbuf_2
*I *888:CLK I *D gf180mcu_fd_sc_mcu7t5v0__dffrnq_1
*I *886:CLK I *D gf180mcu_fd_sc_mcu7t5v0__dffrnq_1
*I *887:CLK I *D gf180mcu_fd_sc_mcu7t5v0__dffrnq_1
*I *899:Z O *D gf180mcu_fd_sc_mcu7t5v0__clkbuf_16
*CAP
1 *889:CLK 0
2 *873:CLK 0.00060121
3 *906:I 0.000204291
4 *888:CLK 0
5 *886:CLK 0.000438496
6 *887:CLK 0.000196252
7 *899:Z 0.000569727
8 *137:53 0.00090838
9 *137:18 0.000878309
10 *137:14 0.000540344
11 *137:10 0.000763631
12 *873:CLK *197:10 0
13 *906:I *177:47 3.4596e-05
14 *906:I *177:66 6.43437e-05
15 *137:10 *759:A2 2.30545e-05
16 *137:10 *177:66 0.00017065
17 *137:14 *758:A1 0
18 *137:14 *758:A2 0
19 *137:53 *759:A1 0.000170382
20 *886:D *886:CLK 2.73715e-06
21 *887:D *886:CLK 6.41811e-05
22 *887:D *887:CLK 9.56679e-05
23 *887:D *137:18 7.18709e-05
24 *888:D *137:10 0.000579362
25 *889:D *873:CLK 7.87395e-06
26 *889:D *137:53 0.000144927
*RES
1 *899:Z *137:10 7.932 
2 *137:10 *137:14 6.268 
3 *137:14 *137:18 6.684 
4 *137:18 *887:CLK 6.06 
5 *137:18 *886:CLK 7.516 
6 *137:14 *888:CLK 9 
7 *137:10 *906:I 6.06 
8 *899:Z *137:53 7.308 
9 *137:53 *873:CLK 18.284 
10 *137:53 *889:CLK 4.5 
*END

*D_NET *138 0.00741995
*CONN
*I *880:CLK I *D gf180mcu_fd_sc_mcu7t5v0__dffrnq_1
*I *891:CLK I *D gf180mcu_fd_sc_mcu7t5v0__dffrnq_1
*I *890:CLK I *D gf180mcu_fd_sc_mcu7t5v0__dffrnq_1
*I *892:CLK I *D gf180mcu_fd_sc_mcu7t5v0__dffrnq_1
*I *893:CLK I *D gf180mcu_fd_sc_mcu7t5v0__dffrnq_1
*I *907:I I *D gf180mcu_fd_sc_mcu7t5v0__clkbuf_2
*I *900:Z O *D gf180mcu_fd_sc_mcu7t5v0__clkbuf_16
*CAP
1 *880:CLK 0.000453163
2 *891:CLK 0
3 *890:CLK 0.000221038
4 *892:CLK 3.6366e-05
5 *893:CLK 0.000200544
6 *907:I 0.000662821
7 *900:Z 0.000454466
8 *138:43 0.000838789
9 *138:41 0.00107091
10 *138:32 0.000445265
11 *880:CLK *916:I 0
12 *880:CLK *176:14 1.18566e-06
13 *880:CLK *176:38 5.43041e-05
14 *880:CLK *182:22 0.000569975
15 *880:CLK *196:10 0.000159517
16 *890:CLK *754:A1 2.73715e-06
17 *890:CLK *754:A2 9.59861e-05
18 *893:CLK *176:38 0.000241982
19 *893:CLK *176:42 0.000169099
20 *907:I *758:A2 2.32529e-05
21 *907:I *938:I 0
22 *907:I *182:22 0
23 *138:32 *891:RN 0
24 *138:32 *960:I 0
25 *138:43 *754:A2 0.000344419
26 *138:43 *917:I 8.45858e-05
27 *138:43 *176:14 9.2169e-05
28 *880:D *880:CLK 0
29 *880:D *893:CLK 9.85012e-05
30 *890:D *890:CLK 0.000215256
31 *891:D *890:CLK 0.000438819
32 *891:D *138:43 0.00028351
33 *892:D *138:32 1.78817e-06
34 *3:22 *893:CLK 0.000159505
*RES
1 *900:Z *907:I 10.664 
2 *900:Z *893:CLK 11.808 
3 *907:I *138:32 7.1 
4 *138:32 *892:CLK 4.812 
5 *138:32 *138:41 4.5 
6 *138:41 *138:43 7.176 
7 *138:43 *890:CLK 11.704 
8 *138:43 *891:CLK 9 
9 *138:41 *880:CLK 12.952 
*END

*D_NET *139 0.00692869
*CONN
*I *863:CLK I *D gf180mcu_fd_sc_mcu7t5v0__dffrnq_1
*I *862:CLK I *D gf180mcu_fd_sc_mcu7t5v0__dffrnq_1
*I *883:CLK I *D gf180mcu_fd_sc_mcu7t5v0__dffrnq_1
*I *865:CLK I *D gf180mcu_fd_sc_mcu7t5v0__dffrnq_1
*I *864:CLK I *D gf180mcu_fd_sc_mcu7t5v0__dffrnq_1
*I *908:I I *D gf180mcu_fd_sc_mcu7t5v0__clkbuf_2
*I *901:Z O *D gf180mcu_fd_sc_mcu7t5v0__clkbuf_16
*CAP
1 *863:CLK 0
2 *862:CLK 0.000407683
3 *883:CLK 0.000699182
4 *865:CLK 0
5 *864:CLK 0
6 *908:I 8.48539e-05
7 *901:Z 0.000174427
8 *139:41 0.000496246
9 *139:20 0.000921776
10 *139:6 0.000393312
11 *862:CLK *782:A1 6.18411e-06
12 *862:CLK *174:86 0.000111416
13 *862:CLK *174:90 0.000102068
14 *883:CLK *885:RN 2.69674e-05
15 *883:CLK *140:50 6.65338e-05
16 *139:6 *782:A1 4.07478e-05
17 *139:6 *785:A1 0.000460013
18 *139:20 *785:A1 0.000569975
19 *139:41 *782:A1 0.000297208
20 *139:41 *174:90 0.000116578
21 *785:A2 *139:20 0.000328552
22 *864:D *139:6 7.992e-05
23 *865:D *883:CLK 1.71326e-05
24 *865:D *139:20 3.10787e-05
25 *882:D *883:CLK 0.00107862
26 *882:D *139:20 0.000406983
27 *883:D *883:CLK 1.12327e-05
*RES
1 *901:Z *139:6 5.852 
2 *139:6 *908:I 5.228 
3 *139:6 *864:CLK 4.5 
4 *139:6 *139:20 3.016 
5 *139:20 *865:CLK 4.5 
6 *139:20 *883:CLK 10.74 
7 *901:Z *139:41 5.852 
8 *139:41 *862:CLK 7.828 
9 *139:41 *863:CLK 4.5 
*END

*D_NET *140 0.00863721
*CONN
*I *881:CLK I *D gf180mcu_fd_sc_mcu7t5v0__dffrnq_1
*I *884:CLK I *D gf180mcu_fd_sc_mcu7t5v0__dffrnq_1
*I *882:CLK I *D gf180mcu_fd_sc_mcu7t5v0__dffrnq_1
*I *909:I I *D gf180mcu_fd_sc_mcu7t5v0__clkbuf_2
*I *885:CLK I *D gf180mcu_fd_sc_mcu7t5v0__dffrnq_1
*I *874:CLK I *D gf180mcu_fd_sc_mcu7t5v0__dffrnq_1
*I *902:Z O *D gf180mcu_fd_sc_mcu7t5v0__clkbuf_16
*CAP
1 *881:CLK 0
2 *884:CLK 6.28376e-05
3 *882:CLK 0
4 *909:I 0
5 *885:CLK 0
6 *874:CLK 0.000261618
7 *902:Z 4.16537e-05
8 *140:50 0.000271173
9 *140:39 0.000253511
10 *140:16 0.00100783
11 *140:10 0.00087194
12 *140:6 0.000212559
13 *874:CLK *815:A1 0
14 *884:CLK *935:I 0
15 *884:CLK *959:I 0
16 *884:CLK *195:10 5.469e-05
17 *140:6 *763:A2 0.00026796
18 *140:6 *885:RN 0.000337769
19 *140:10 *763:A1 0.00026538
20 *140:10 *959:I 0.00113699
21 *140:10 *203:42 0.00037585
22 *140:16 *756:A2 0
23 *140:16 *763:A1 0.000226771
24 *140:16 *764:A2 0
25 *140:16 *203:42 0.00173991
26 *140:39 *885:RN 0.000147623
27 *140:50 *885:RN 0.000541508
28 *140:50 *959:I 0
29 *140:50 *195:10 0.000168178
30 *882:D *140:6 6.30895e-06
31 *882:D *140:39 2.16732e-05
32 *882:D *140:50 7.87395e-06
33 *883:CLK *140:50 6.65338e-05
34 *885:D *874:CLK 7.87395e-06
35 *885:D *140:16 7.17602e-05
36 *893:D *140:16 0
37 *132:53 *874:CLK 3.07284e-05
38 *132:53 *140:16 3.2098e-05
39 *132:114 *140:16 4.00834e-05
40 *132:123 *140:16 0.000106515
*RES
1 *902:Z *140:6 5.436 
2 *140:6 *140:10 8.348 
3 *140:10 *140:16 13.028 
4 *140:16 *874:CLK 6.372 
5 *140:16 *885:CLK 4.5 
6 *140:10 *909:I 9 
7 *140:6 *140:39 0.52 
8 *140:39 *882:CLK 4.5 
9 *140:39 *140:50 7.204 
10 *140:50 *884:CLK 9.728 
11 *140:50 *881:CLK 9 
*END

*D_NET *141 0.00877145
*CONN
*I *794:A1 I *D gf180mcu_fd_sc_mcu7t5v0__xnor2_1
*I *795:A1 I *D gf180mcu_fd_sc_mcu7t5v0__xor2_1
*I *797:A1 I *D gf180mcu_fd_sc_mcu7t5v0__nand2_1
*I *793:A3 I *D gf180mcu_fd_sc_mcu7t5v0__nand4_1
*I *868:Q O *D gf180mcu_fd_sc_mcu7t5v0__dffrnq_1
*CAP
1 *794:A1 0
2 *795:A1 0.000380162
3 *797:A1 0.000362902
4 *793:A3 0
5 *868:Q 0.000595573
6 *141:36 0.000703801
7 *141:19 0.000709873
8 *141:10 0.000618904
9 *797:A1 *787:A2 6.85626e-05
10 *797:A1 *792:A2 4.54704e-05
11 *797:A1 *793:A2 0.000135342
12 *797:A1 *212:43 6.24255e-05
13 *141:10 *793:A2 3.4596e-05
14 *141:10 *868:RN 4.6353e-05
15 *141:10 *927:I 0.000104561
16 *141:10 *175:8 0.000188403
17 *141:10 *180:10 0.000488844
18 *141:19 *793:A2 2.14739e-05
19 *141:36 *793:A2 4.38131e-05
20 *793:A4 *797:A1 0.000175128
21 *794:A2 *797:A1 0.000343529
22 *794:A2 *141:36 0.0007135
23 *795:A2 *795:A1 0.00101328
24 *795:A2 *141:36 7.22679e-05
25 *798:A4 *141:36 0
26 *799:A2 *141:36 2.46007e-05
27 *800:A2 *141:36 1.11474e-05
28 *844:A2 *141:36 0
29 *895:I *141:10 2.33824e-05
30 *65:14 *797:A1 8.93357e-05
31 *65:40 *797:A1 0.000125283
32 *112:18 *141:10 0.00111321
33 *113:26 *141:10 0.000256312
34 *126:28 *141:10 5.57504e-05
35 *126:28 *141:19 0.000103788
36 *132:93 *795:A1 3.98821e-05
*RES
1 *868:Q *141:10 12.092 
2 *141:10 *793:A3 4.5 
3 *141:10 *141:19 4.812 
4 *141:19 *797:A1 12.952 
5 *141:19 *141:36 7.828 
6 *141:36 *795:A1 8.556 
7 *141:36 *794:A1 4.5 
*END

*D_NET *142 0.00788985
*CONN
*I *799:A1 I *D gf180mcu_fd_sc_mcu7t5v0__xnor2_1
*I *800:A1 I *D gf180mcu_fd_sc_mcu7t5v0__xor2_1
*I *797:A2 I *D gf180mcu_fd_sc_mcu7t5v0__nand2_1
*I *869:Q O *D gf180mcu_fd_sc_mcu7t5v0__dffrnq_1
*CAP
1 *799:A1 0
2 *800:A1 0
3 *797:A2 0.000182367
4 *869:Q 0.000574459
5 *142:16 0.000398754
6 *142:10 0.000790845
7 *797:A2 *787:A2 7.43413e-05
8 *797:A2 *793:A2 9.54562e-05
9 *142:10 *804:A1 3.4596e-05
10 *142:10 *806:A1 0.000775837
11 *142:10 *829:C 0.000492316
12 *142:10 *869:RN 4.79815e-05
13 *142:10 *183:6 1.19663e-05
14 *142:16 *829:C 0.00124761
15 *142:16 *212:12 0.000204659
16 *798:A4 *797:A2 5.23324e-05
17 *798:A4 *142:10 0.000397744
18 *798:A4 *142:16 1.34679e-05
19 *806:A2 *142:10 0.000425015
20 *829:B *142:10 0.00012667
21 *829:B *142:16 0.000139453
22 *66:32 *797:A2 0.000673265
23 *113:26 *142:16 0.000569975
24 *126:28 *142:16 0.000560747
*RES
1 *869:Q *142:10 16.28 
2 *142:10 *142:16 9.7 
3 *142:16 *797:A2 15.684 
4 *142:16 *800:A1 4.5 
5 *142:10 *799:A1 9 
*END

*D_NET *143 0.00761998
*CONN
*I *803:A1 I *D gf180mcu_fd_sc_mcu7t5v0__xor2_1
*I *804:A1 I *D gf180mcu_fd_sc_mcu7t5v0__xnor2_1
*I *802:A1 I *D gf180mcu_fd_sc_mcu7t5v0__nand2_1
*I *870:Q O *D gf180mcu_fd_sc_mcu7t5v0__dffrnq_1
*CAP
1 *803:A1 0
2 *804:A1 0.000389546
3 *802:A1 4.76605e-05
4 *870:Q 0.000573688
5 *143:25 0.000682562
6 *143:10 0.000914365
7 *804:A1 *144:8 0
8 *798:A3 *804:A1 0.000315824
9 *798:A4 *804:A1 0.000251575
10 *802:A2 *802:A1 0.000114849
11 *802:A2 *804:A1 7.87395e-06
12 *802:A2 *143:25 3.14958e-05
13 *804:A2 *804:A1 0.00067298
14 *806:A2 *802:A1 0.000353518
15 *806:A2 *804:A1 0.00037733
16 *806:A2 *143:10 0.000267497
17 *806:A2 *143:25 0.00019404
18 *807:A2 *802:A1 5.91282e-05
19 *807:A2 *143:10 0.000240504
20 *850:B *143:10 0
21 *861:D *143:10 8.75081e-05
22 *871:D *802:A1 0.000513353
23 *871:D *143:10 0.00132731
24 *92:6 *804:A1 0.00010861
25 *98:12 *143:10 5.41656e-05
26 *142:10 *804:A1 3.4596e-05
*RES
1 *870:Q *143:10 15.656 
2 *143:10 *802:A1 10.664 
3 *143:10 *143:25 6.892 
4 *143:25 *804:A1 10.428 
5 *143:25 *803:A1 4.5 
*END

*D_NET *144 0.00824911
*CONN
*I *806:A1 I *D gf180mcu_fd_sc_mcu7t5v0__xor2_1
*I *829:C I *D gf180mcu_fd_sc_mcu7t5v0__oai211_1
*I *871:Q O *D gf180mcu_fd_sc_mcu7t5v0__dffrnq_1
*CAP
1 *806:A1 0.000388137
2 *829:C 0.000134493
3 *871:Q 0.000427873
4 *144:8 0.000950503
5 *806:A1 *913:I 0.0011207
6 *144:8 *798:A1 0
7 *798:A4 *806:A1 0.000160159
8 *798:A4 *829:C 0.000243739
9 *804:A1 *144:8 0
10 *804:A2 *144:8 0
11 *806:A2 *806:A1 0.000102068
12 *829:A1 *829:C 0.000498816
13 *829:B *144:8 0.000129211
14 *846:A2 *806:A1 0
15 *132:78 *144:8 0
16 *136:8 *806:A1 0.00103614
17 *136:26 *806:A1 0.000541508
18 *142:10 *806:A1 0.000775837
19 *142:10 *829:C 0.000492316
20 *142:16 *829:C 0.00124761
*RES
1 *871:Q *144:8 11.808 
2 *144:8 *829:C 13.472 
3 *144:8 *806:A1 16.28 
*END

*D_NET *145 0.00554103
*CONN
*I *809:A1 I *D gf180mcu_fd_sc_mcu7t5v0__xnor2_1
*I *808:A1 I *D gf180mcu_fd_sc_mcu7t5v0__xor2_1
*I *774:A2 I *D gf180mcu_fd_sc_mcu7t5v0__nand2_1
*I *773:A2 I *D gf180mcu_fd_sc_mcu7t5v0__nand4_1
*I *872:Q O *D gf180mcu_fd_sc_mcu7t5v0__dffrnq_1
*CAP
1 *809:A1 0.000182949
2 *808:A1 0
3 *774:A2 0.000290505
4 *773:A2 0.000295076
5 *872:Q 0
6 *145:32 0.000365616
7 *145:17 0.000500871
8 *145:4 0.000322775
9 *773:A2 *767:A1 3.46149e-05
10 *773:A2 *773:A1 4.6966e-05
11 *773:A2 *175:27 0.000105192
12 *773:A2 *187:16 0.000186801
13 *774:A2 *872:RN 0.000228035
14 *774:A2 *175:29 0
15 *774:A2 *211:26 0
16 *809:A1 *811:A1 0.000103788
17 *809:A1 *175:63 0.000395255
18 *145:17 *872:RN 0
19 *775:A4 *774:A2 5.39304e-05
20 *775:A4 *809:A1 0.000410048
21 *775:A4 *145:32 4.45967e-05
22 *808:A2 *809:A1 4.67771e-06
23 *809:A2 *809:A1 0.00027306
24 *812:A2 *774:A2 0
25 *812:A2 *809:A1 1.91879e-05
26 *875:CLK *773:A2 0
27 *875:CLK *145:17 0
28 *66:12 *774:A2 1.12231e-05
29 *66:12 *145:32 4.42325e-05
30 *72:8 *773:A2 0.00134239
31 *72:8 *774:A2 2.55997e-05
32 *72:8 *809:A1 5.91314e-05
33 *72:8 *145:17 0.000194511
*RES
1 *872:Q *145:4 4.5 
2 *145:4 *773:A2 8.66 
3 *145:4 *145:17 5.02 
4 *145:17 *774:A2 11.704 
5 *145:17 *145:32 5.644 
6 *145:32 *808:A1 4.5 
7 *145:32 *809:A1 7.516 
*END

*D_NET *146 0.00231044
*CONN
*I *812:A1 I *D gf180mcu_fd_sc_mcu7t5v0__xor2_1
*I *811:A1 I *D gf180mcu_fd_sc_mcu7t5v0__xnor2_1
*I *774:A1 I *D gf180mcu_fd_sc_mcu7t5v0__nand2_1
*I *873:Q O *D gf180mcu_fd_sc_mcu7t5v0__dffrnq_1
*CAP
1 *812:A1 0.000208152
2 *811:A1 0.000154488
3 *774:A1 4.77501e-05
4 *873:Q 0
5 *146:8 0.000325916
6 *146:4 0.00033183
7 *774:A1 *175:29 0.000292328
8 *811:A1 *175:29 7.36271e-05
9 *811:A1 *175:55 0.00026187
10 *811:A1 *175:63 0.000103788
11 *811:A1 *175:85 0.000107648
12 *812:A1 *175:63 1.23682e-05
13 *812:A1 *197:23 3.58572e-05
14 *146:8 *872:RN 1.84122e-05
15 *146:8 *197:23 2.73715e-06
16 *809:A1 *811:A1 0.000103788
17 *810:A2 *774:A1 0
18 *810:A2 *811:A1 0
19 *812:A2 *812:A1 0.000158231
20 *812:A2 *146:8 7.16472e-05
*RES
1 *873:Q *146:4 4.5 
2 *146:4 *146:8 5.436 
3 *146:8 *774:A1 9.728 
4 *146:8 *811:A1 10.456 
5 *146:4 *812:A1 6.476 
*END

*D_NET *147 0.0057889
*CONN
*I *778:A1 I *D gf180mcu_fd_sc_mcu7t5v0__xnor2_1
*I *777:A1 I *D gf180mcu_fd_sc_mcu7t5v0__xor2_1
*I *776:A1 I *D gf180mcu_fd_sc_mcu7t5v0__nand2_1
*I *874:Q O *D gf180mcu_fd_sc_mcu7t5v0__dffrnq_1
*CAP
1 *778:A1 0
2 *777:A1 0.0001678
3 *776:A1 0.000114747
4 *874:Q 0.000312563
5 *147:25 0.0001678
6 *147:12 0.000427309
7 *776:A1 *211:26 2.46717e-05
8 *777:A1 *830:B 7.20461e-05
9 *147:12 *783:A1 0.000527377
10 *147:12 *830:B 0.000253873
11 *147:12 *152:14 0.00149615
12 *776:A2 *776:A1 0.000574825
13 *777:A2 *777:A1 0.000122244
14 *783:A2 *776:A1 1.07369e-05
15 *852:A2 *776:A1 0.000942881
16 *852:A2 *147:12 0.000513523
17 *74:18 *777:A1 6.03497e-05
*RES
1 *874:Q *147:12 14.72 
2 *147:12 *776:A1 11.704 
3 *147:12 *147:25 4.5 
4 *147:25 *777:A1 6.06 
5 *147:25 *778:A1 4.5 
*END

*D_NET *148 0.00513872
*CONN
*I *783:A1 I *D gf180mcu_fd_sc_mcu7t5v0__xor2_1
*I *830:B I *D gf180mcu_fd_sc_mcu7t5v0__oai211_1
*I *875:Q O *D gf180mcu_fd_sc_mcu7t5v0__dffrnq_1
*CAP
1 *783:A1 0.000753267
2 *830:B 0.000600544
3 *875:Q 0
4 *148:4 0.00135381
5 *783:A1 *875:RN 6.69436e-05
6 *783:A1 *885:RN 0
7 *783:A1 *152:14 9.5382e-05
8 *783:A1 *194:26 9.52642e-05
9 *830:B *807:A1 0
10 *830:B *875:RN 1.50534e-05
11 *830:B *152:14 0.000316344
12 *830:B *152:22 0.000143493
13 *830:B *175:85 4.17612e-05
14 *777:A1 *830:B 7.20461e-05
15 *777:A2 *830:B 0.000125933
16 *783:A2 *783:A1 0
17 *850:A2 *830:B 0.000677628
18 *147:12 *783:A1 0.000527377
19 *147:12 *830:B 0.000253873
*RES
1 *875:Q *148:4 4.5 
2 *148:4 *830:B 20.26 
3 *148:4 *783:A1 11.364 
*END

*D_NET *149 0.00254298
*CONN
*I *762:A2 I *D gf180mcu_fd_sc_mcu7t5v0__and2_1
*I *882:Q O *D gf180mcu_fd_sc_mcu7t5v0__dffrnq_1
*CAP
1 *762:A2 0.000844717
2 *882:Q 0.000844717
3 *762:A2 *762:A1 0.000208806
4 *762:A2 *763:A2 0.000115166
5 *762:A2 *865:RN 0.000346997
6 *762:A2 *882:RN 0
7 *762:A2 *883:RN 9.87996e-05
8 *762:A2 *934:I 0
9 *762:A2 *950:I 2.49086e-05
10 *762:A2 *953:I 5.88662e-05
11 *762:A2 *195:10 0
12 *762:A2 *195:19 0
*RES
1 *882:Q *762:A2 25.28 
*END

*D_NET *150 0.00528104
*CONN
*I *763:A2 I *D gf180mcu_fd_sc_mcu7t5v0__and2_1
*I *883:Q O *D gf180mcu_fd_sc_mcu7t5v0__dffrnq_1
*CAP
1 *763:A2 0.000963141
2 *883:Q 0.000963141
3 *763:A2 *761:A2 0.0012084
4 *763:A2 *763:A1 0.000189683
5 *763:A2 *784:A1 0
6 *763:A2 *865:RN 0.000278012
7 *763:A2 *885:RN 0.000173451
8 *763:A2 *959:I 0.00105883
9 *762:A2 *763:A2 0.000115166
10 *882:D *763:A2 6.3258e-05
11 *140:6 *763:A2 0.00026796
*RES
1 *883:Q *763:A2 30.376 
*END

*D_NET *151 0.00208712
*CONN
*I *764:A2 I *D gf180mcu_fd_sc_mcu7t5v0__and2_1
*I *884:Q O *D gf180mcu_fd_sc_mcu7t5v0__dffrnq_1
*CAP
1 *764:A2 0.000491047
2 *884:Q 0.000491047
3 *764:A2 *764:A1 0.000194522
4 *764:A2 *880:RN 0
5 *764:A2 *884:RN 9.00616e-05
6 *764:A2 *201:21 0.000741666
7 *764:A2 *203:42 7.69918e-05
8 *132:123 *764:A2 1.78817e-06
9 *140:16 *764:A2 0
*RES
1 *884:Q *764:A2 23.2 
*END

*D_NET *152 0.0148652
*CONN
*I *746:I I *D gf180mcu_fd_sc_mcu7t5v0__clkinv_1
*I *773:A1 I *D gf180mcu_fd_sc_mcu7t5v0__nand4_1
*I *786:A3 I *D gf180mcu_fd_sc_mcu7t5v0__nand3_1
*I *798:A1 I *D gf180mcu_fd_sc_mcu7t5v0__nor4_4
*I *885:Q O *D gf180mcu_fd_sc_mcu7t5v0__dffrnq_1
*CAP
1 *746:I 0
2 *773:A1 7.81658e-05
3 *786:A3 0.000954252
4 *798:A1 0.000373873
5 *885:Q 0.001021
6 *152:37 0.00169568
7 *152:22 0.00164074
8 *152:14 0.0016246
9 *773:A1 *187:16 3.22108e-05
10 *786:A3 *182:22 0.000876213
11 *786:A3 *216:20 1.57479e-05
12 *152:14 *782:A1 0
13 *152:22 *775:A2 9.35542e-06
14 *152:22 *807:A1 0
15 *152:22 *175:85 9.5382e-05
16 *152:37 *189:10 0
17 *773:A2 *773:A1 4.6966e-05
18 *773:A3 *786:A3 0.000271764
19 *773:A3 *152:37 0.000882681
20 *777:A2 *152:14 2.13874e-05
21 *777:A2 *152:22 0.000936188
22 *783:A1 *152:14 9.5382e-05
23 *791:A2 *786:A3 2.08795e-05
24 *798:A3 *152:37 0.000262303
25 *805:A2 *152:22 0.000112472
26 *807:A2 *152:22 0
27 *830:B *152:14 0.000316344
28 *830:B *152:22 0.000143493
29 *864:D *152:14 0
30 *866:CLK *786:A3 0.000966936
31 *870:D *798:A1 1.60338e-05
32 *870:D *152:22 0.00017679
33 *870:CLK *798:A1 0.000190584
34 *871:D *152:22 0
35 *66:14 *773:A1 1.36398e-06
36 *66:32 *773:A1 1.78817e-06
37 *113:26 *152:22 6.04313e-05
38 *126:10 *152:14 1.85523e-05
39 *132:69 *152:22 4.58312e-05
40 *132:78 *798:A1 9.34334e-05
41 *132:78 *152:22 1.42118e-05
42 *134:12 *786:A3 0.000255956
43 *144:8 *798:A1 0
44 *147:12 *152:14 0.00149615
*RES
1 *885:Q *152:14 14.38 
2 *152:14 *152:22 15.448 
3 *152:22 *798:A1 7.516 
4 *152:22 *152:37 9.596 
5 *152:37 *786:A3 18.152 
6 *152:37 *773:A1 9.624 
7 *152:14 *746:I 4.5 
*END

*D_NET *153 0.00808664
*CONN
*I *819:A1 I *D gf180mcu_fd_sc_mcu7t5v0__xor2_1
*I *821:A1 I *D gf180mcu_fd_sc_mcu7t5v0__nand3_1
*I *825:A2 I *D gf180mcu_fd_sc_mcu7t5v0__nand4_1
*I *818:A1 I *D gf180mcu_fd_sc_mcu7t5v0__oai21_1
*I *769:A1 I *D gf180mcu_fd_sc_mcu7t5v0__or3_1
*I *816:A2 I *D gf180mcu_fd_sc_mcu7t5v0__nand3_1
*I *876:Q O *D gf180mcu_fd_sc_mcu7t5v0__dffrnq_1
*CAP
1 *819:A1 6.24694e-05
2 *821:A1 0.000127962
3 *825:A2 0.000278511
4 *818:A1 0
5 *769:A1 0
6 *816:A2 0
7 *876:Q 0.000309751
8 *153:42 0.000450429
9 *153:40 0.000763378
10 *153:29 0.00138439
11 *153:16 0.00114831
12 *153:12 0.00059964
13 *819:A1 *876:RN 5.52588e-05
14 *821:A1 *821:A2 3.93494e-05
15 *821:A1 *172:22 6.09406e-06
16 *825:A2 *749:I 0.000167652
17 *825:A2 *768:A3 0.000327863
18 *825:A2 *825:A3 1.79718e-05
19 *825:A2 *155:12 0.000161739
20 *153:12 *748:I 0.000117407
21 *153:12 *876:RN 8.75131e-05
22 *153:16 *748:I 0.000350608
23 *153:29 *748:I 4.6833e-05
24 *153:29 *172:22 0.000138538
25 *153:40 *821:A2 4.44673e-06
26 *153:40 *154:27 1.06067e-05
27 *153:40 *172:22 0.000287172
28 *153:42 *154:27 2.84156e-05
29 *153:42 *155:12 0.000594096
30 *153:42 *181:32 5.44006e-06
31 *769:A2 *153:29 2.64063e-05
32 *769:A3 *153:40 4.59575e-05
33 *769:A3 *153:42 4.41041e-05
34 *816:A3 *153:29 1.11523e-05
35 *824:A1 *153:40 6.85626e-05
36 *824:A1 *153:42 0.000177905
37 *827:A2 *825:A2 6.10573e-05
38 *827:A2 *153:42 2.70192e-05
39 *840:A1 *153:29 0
40 *840:B1 *153:29 0
41 *840:B1 *153:40 0
42 *857:D *153:29 0
43 *876:CLK *153:29 0
44 *66:68 *153:29 2.16656e-05
45 *66:81 *153:29 3.09676e-05
*RES
1 *876:Q *153:12 16.204 
2 *153:12 *153:16 6.892 
3 *153:16 *816:A2 9 
4 *153:16 *153:29 10.74 
5 *153:29 *769:A1 4.5 
6 *153:29 *153:40 8.66 
7 *153:40 *153:42 2.6 
8 *153:42 *818:A1 9 
9 *153:42 *825:A2 12.016 
10 *153:40 *821:A1 9.728 
11 *153:12 *819:A1 5.02 
*END

*D_NET *154 0.00772888
*CONN
*I *825:A3 I *D gf180mcu_fd_sc_mcu7t5v0__nand4_1
*I *821:A2 I *D gf180mcu_fd_sc_mcu7t5v0__nand3_1
*I *768:A1 I *D gf180mcu_fd_sc_mcu7t5v0__nand3_1
*I *748:I I *D gf180mcu_fd_sc_mcu7t5v0__clkinv_1
*I *877:Q O *D gf180mcu_fd_sc_mcu7t5v0__dffrnq_1
*CAP
1 *825:A3 0.000167956
2 *821:A2 0.000128675
3 *768:A1 0
4 *748:I 0.000465678
5 *877:Q 0
6 *154:27 0.000352286
7 *154:19 0.000665951
8 *154:4 0.000740062
9 *748:I *816:A1 2.46831e-05
10 *825:A3 *749:I 0.000190152
11 *825:A3 *768:A3 8.16884e-06
12 *825:A3 *825:A1 6.18411e-06
13 *825:A3 *181:8 0.000125177
14 *154:19 *825:A1 2.2201e-05
15 *154:19 *877:RN 0
16 *154:27 *768:A3 0.000642357
17 *154:27 *825:A1 6.17392e-05
18 *154:27 *155:12 9.76261e-05
19 *154:27 *181:32 0.000328794
20 *816:A3 *748:I 0.00033605
21 *818:B *748:I 0.000330362
22 *818:B *825:A3 0.000103788
23 *818:B *154:19 0.00118736
24 *819:A2 *748:I 0.000648737
25 *821:A1 *821:A2 3.93494e-05
26 *825:A2 *825:A3 1.79718e-05
27 *840:B1 *821:A2 0.000284729
28 *840:B1 *154:27 0.000194522
29 *153:12 *748:I 0.000117407
30 *153:16 *748:I 0.000350608
31 *153:29 *748:I 4.6833e-05
32 *153:40 *821:A2 4.44673e-06
33 *153:40 *154:27 1.06067e-05
34 *153:42 *154:27 2.84156e-05
*RES
1 *877:Q *154:4 4.5 
2 *154:4 *748:I 19.116 
3 *154:4 *154:19 3.224 
4 *154:19 *154:27 12.328 
5 *154:27 *768:A1 4.5 
6 *154:27 *821:A2 5.748 
7 *154:19 *825:A3 6.164 
*END

*D_NET *155 0.00595634
*CONN
*I *749:I I *D gf180mcu_fd_sc_mcu7t5v0__clkinv_1
*I *821:A3 I *D gf180mcu_fd_sc_mcu7t5v0__nand3_1
*I *768:A2 I *D gf180mcu_fd_sc_mcu7t5v0__nand3_1
*I *878:Q O *D gf180mcu_fd_sc_mcu7t5v0__dffrnq_1
*CAP
1 *749:I 0.000694162
2 *821:A3 3.71207e-05
3 *768:A2 0
4 *878:Q 0
5 *155:12 0.000144709
6 *155:4 0.00080175
7 *749:I *768:A3 3.31479e-05
8 *749:I *825:A1 0
9 *749:I *827:A1 0.0006793
10 *749:I *156:27 0.000287853
11 *155:12 *768:A3 0.000734697
12 *820:A2 *749:I 7.02954e-05
13 *820:B1 *749:I 0
14 *825:A2 *749:I 0.000167652
15 *825:A2 *155:12 0.000161739
16 *825:A3 *749:I 0.000190152
17 *827:A2 *749:I 4.43462e-05
18 *840:A2 *821:A3 0.000372387
19 *840:A2 *155:12 0.000103788
20 *840:B1 *821:A3 0.000406983
21 *840:B1 *155:12 0.000103788
22 *878:D *749:I 0.000196345
23 *879:D *749:I 3.43999e-05
24 *104:14 *749:I 0
25 *153:42 *155:12 0.000594096
26 *154:27 *155:12 9.76261e-05
*RES
1 *878:Q *155:4 4.5 
2 *155:4 *155:12 11.912 
3 *155:12 *768:A2 4.5 
4 *155:12 *821:A3 5.644 
5 *155:4 *749:I 20.468 
*END

*D_NET *156 0.00615317
*CONN
*I *828:A1 I *D gf180mcu_fd_sc_mcu7t5v0__oai31_1
*I *827:A1 I *D gf180mcu_fd_sc_mcu7t5v0__nand2_1
*I *768:A3 I *D gf180mcu_fd_sc_mcu7t5v0__nand3_1
*I *879:Q O *D gf180mcu_fd_sc_mcu7t5v0__dffrnq_1
*CAP
1 *828:A1 0
2 *827:A1 4.95116e-05
3 *768:A3 0.000171007
4 *879:Q 0.000266701
5 *156:27 0.000147025
6 *156:10 0.000535221
7 *768:A3 *825:A1 0.000564417
8 *768:A3 *181:8 2.39156e-06
9 *156:10 *878:RN 0.000215929
10 *156:10 *181:8 1.36398e-06
11 *749:I *768:A3 3.31479e-05
12 *749:I *827:A1 0.0006793
13 *749:I *156:27 0.000287853
14 *825:A2 *768:A3 0.000327863
15 *825:A3 *768:A3 8.16884e-06
16 *825:A4 *156:10 3.57634e-06
17 *826:B1 *156:10 0.000158012
18 *827:A2 *827:A1 0.00012761
19 *827:A2 *156:27 0.000821169
20 *828:B *827:A1 0.00037585
21 *154:27 *768:A3 0.000642357
22 *155:12 *768:A3 0.000734697
*RES
1 *879:Q *156:10 6.476 
2 *156:10 *768:A3 17.452 
3 *156:10 *156:27 6.684 
4 *156:27 *827:A1 11.08 
5 *156:27 *828:A1 9 
*END

*D_NET *157 0.00517861
*CONN
*I *761:A2 I *D gf180mcu_fd_sc_mcu7t5v0__and2_1
*I *918:Z O *D gf180mcu_fd_sc_mcu7t5v0__buf_1
*CAP
1 *761:A2 0.000897389
2 *918:Z 0.000897389
3 *761:A2 *784:A1 0
4 *761:A2 *864:RN 6.04145e-05
5 *761:A2 *865:RN 0.000924554
6 *761:A2 *949:I 0.000258243
7 *761:A2 *950:I 0.000565183
8 *763:A2 *761:A2 0.0012084
9 *785:B *761:A2 0.000367043
*RES
1 *918:Z *761:A2 29.648 
*END

*D_NET *158 0.00602907
*CONN
*I *834:A1 I *D gf180mcu_fd_sc_mcu7t5v0__nand2_1
*I *940:I I *D gf180mcu_fd_sc_mcu7t5v0__buf_2
*I *854:Q O *D gf180mcu_fd_sc_mcu7t5v0__dffrnq_1
*CAP
1 *834:A1 0.000468629
2 *940:I 0.00238417
3 *854:Q 4.11339e-05
4 *158:6 0.00289393
5 *834:A1 *857:RN 0
6 *834:A1 *172:14 0.000195708
7 *834:A1 *172:22 3.42651e-05
8 *940:I *854:RN 0
9 *832:A1 *834:A1 0
10 *832:B *834:A1 1.12327e-05
*RES
1 *854:Q *158:6 4.812 
2 *158:6 *940:I 34.092 
3 *158:6 *834:A1 17.244 
*END

*D_NET *159 0.0037058
*CONN
*I *941:I I *D gf180mcu_fd_sc_mcu7t5v0__buf_2
*I *838:A2 I *D gf180mcu_fd_sc_mcu7t5v0__nand3_1
*I *856:Q O *D gf180mcu_fd_sc_mcu7t5v0__dffrnq_1
*CAP
1 *941:I 0
2 *838:A2 0.000744026
3 *856:Q 0.000415925
4 *159:10 0.00115995
5 *838:A2 *750:I 0.000542895
6 *838:A2 *836:A1 0.000333303
7 *838:A2 *184:8 0
8 *159:10 *929:I 0.000254943
9 phase_state[0] *159:10 0.000254761
*RES
1 *856:Q *159:10 12.744 
2 *159:10 *838:A2 15.552 
3 *159:10 *941:I 9 
*END

*D_NET *160 0.00836086
*CONN
*I *942:I I *D gf180mcu_fd_sc_mcu7t5v0__buf_2
*I *751:I I *D gf180mcu_fd_sc_mcu7t5v0__clkinv_1
*I *857:Q O *D gf180mcu_fd_sc_mcu7t5v0__dffrnq_1
*CAP
1 *942:I 0.000650979
2 *751:I 0.000312173
3 *857:Q 9.99617e-05
4 *160:8 0.00106311
5 *942:I *170:10 0.00170697
6 *942:I *170:25 0.000939932
7 *942:I *205:12 0.000140475
8 *160:8 *857:RN 1.96514e-05
9 *832:A1 *751:I 0.000411574
10 *832:B *751:I 0.000179244
11 *833:B1 *942:I 0.000154593
12 *835:A1 *751:I 1.823e-05
13 *835:A1 *942:I 0.000550424
14 *835:A2 *160:8 8.75131e-05
15 *835:B *751:I 0.000177022
16 *837:A1 *942:I 0.000857333
17 *842:A2 *942:I 1.27019e-05
18 *842:B *942:I 0
19 *70:20 *942:I 5.23429e-05
20 *112:18 *751:I 0.000450004
21 *112:29 *751:I 9.09967e-05
22 *112:29 *942:I 0.000118791
23 *115:8 *751:I 8.66234e-05
24 *125:27 *942:I 0.000180208
*RES
1 *857:Q *160:8 9.728 
2 *160:8 *751:I 13.368 
3 *160:8 *942:I 20.544 
*END

*D_NET *161 0.0012199
*CONN
*I *943:I I *D gf180mcu_fd_sc_mcu7t5v0__buf_2
*I *841:A1 I *D gf180mcu_fd_sc_mcu7t5v0__nand2_1
*I *858:Q O *D gf180mcu_fd_sc_mcu7t5v0__dffrnq_1
*CAP
1 *943:I 0
2 *841:A1 0.000164019
3 *858:Q 0.000331901
4 *161:10 0.00049592
5 *841:A1 *170:32 0.000122244
6 *841:A1 *185:12 5.13239e-06
7 *161:10 *174:31 9.41008e-05
8 votes_in_phase[0] *161:10 6.57935e-06
*RES
1 *858:Q *161:10 11.288 
2 *161:10 *841:A1 10.456 
3 *161:10 *943:I 9 
*END

*D_NET *162 0.00320168
*CONN
*I *944:I I *D gf180mcu_fd_sc_mcu7t5v0__buf_2
*I *843:A1 I *D gf180mcu_fd_sc_mcu7t5v0__nand2_1
*I *859:Q O *D gf180mcu_fd_sc_mcu7t5v0__dffrnq_1
*CAP
1 *944:I 0.000105511
2 *843:A1 8.41005e-05
3 *859:Q 0.000527592
4 *162:10 0.000717204
5 *843:A1 *844:A1 3.48215e-05
6 *843:A1 *174:31 4.33994e-05
7 *843:A1 *186:10 0.000510584
8 *944:I *859:RN 3.4596e-05
9 *944:I *860:RN 0.000629167
10 *944:I *174:44 0.000170864
11 *944:I *186:12 6.91919e-05
12 *162:10 *174:31 0.000113219
13 *162:10 *185:12 5.37778e-05
14 *162:10 *186:10 0.000107648
15 votes_in_phase[1] *162:10 0
*RES
1 *859:Q *162:10 12.536 
2 *162:10 *843:A1 10.352 
3 *162:10 *944:I 10.976 
*END

*D_NET *163 0.00300539
*CONN
*I *945:I I *D gf180mcu_fd_sc_mcu7t5v0__buf_2
*I *845:A1 I *D gf180mcu_fd_sc_mcu7t5v0__nand2_1
*I *860:Q O *D gf180mcu_fd_sc_mcu7t5v0__dffrnq_1
*CAP
1 *945:I 0
2 *845:A1 0.000338739
3 *860:Q 0.000710582
4 *163:10 0.00104932
5 *845:A1 *845:A2 0.000157213
6 *845:A1 *171:12 0.000179413
7 *845:A1 *171:27 0.000113027
8 *163:10 *174:44 0
9 *163:10 *174:55 0
10 votes_in_phase[2] *163:10 0.000422833
11 *871:D *845:A1 3.42651e-05
*RES
1 *860:Q *163:10 14.2 
2 *163:10 *845:A1 12.12 
3 *163:10 *945:I 9 
*END

*D_NET *164 0.00248545
*CONN
*I *946:I I *D gf180mcu_fd_sc_mcu7t5v0__buf_2
*I *847:A1 I *D gf180mcu_fd_sc_mcu7t5v0__nand2_1
*I *861:Q O *D gf180mcu_fd_sc_mcu7t5v0__dffrnq_1
*CAP
1 *946:I 0
2 *847:A1 0.000386717
3 *861:Q 0.000485531
4 *164:10 0.000872248
5 *847:A1 *171:34 0.000256274
6 *847:A1 *174:55 0.000111658
7 *164:10 *861:RN 0
8 votes_in_phase[3] *164:10 0.00026611
9 *871:D *847:A1 0.000106908
*RES
1 *861:Q *164:10 12.536 
2 *164:10 *847:A1 12.328 
3 *164:10 *946:I 9 
*END

*D_NET *165 0.00261312
*CONN
*I *947:I I *D gf180mcu_fd_sc_mcu7t5v0__buf_2
*I *849:A1 I *D gf180mcu_fd_sc_mcu7t5v0__nand2_1
*I *862:Q O *D gf180mcu_fd_sc_mcu7t5v0__dffrnq_1
*CAP
1 *947:I 0.000149145
2 *849:A1 0.000403021
3 *862:Q 0.000175553
4 *165:8 0.00072772
5 *849:A1 *851:A2 9.09749e-05
6 *849:A1 *171:42 0.000265501
7 *947:I *851:A2 0
8 *947:I *861:RN 3.4596e-05
9 *947:I *862:RN 0.000745259
10 votes_out_phase[0] *165:8 2.13536e-05
*RES
1 *862:Q *165:8 10.352 
2 *165:8 *849:A1 12.328 
3 *165:8 *947:I 10.976 
*END

*D_NET *166 0.00219493
*CONN
*I *948:I I *D gf180mcu_fd_sc_mcu7t5v0__buf_2
*I *851:A1 I *D gf180mcu_fd_sc_mcu7t5v0__nand2_1
*I *863:Q O *D gf180mcu_fd_sc_mcu7t5v0__dffrnq_1
*CAP
1 *948:I 0.00014367
2 *851:A1 0.000303275
3 *863:Q 0.000167687
4 *166:8 0.000614632
5 *851:A1 *171:42 0.000265501
6 *948:I *862:RN 0.000127173
7 *948:I *863:RN 0.000271894
8 *782:B *851:A1 0.000301097
*RES
1 *863:Q *166:8 10.144 
2 *166:8 *851:A1 12.328 
3 *166:8 *948:I 10.976 
*END

*D_NET *167 0.00297276
*CONN
*I *949:I I *D gf180mcu_fd_sc_mcu7t5v0__buf_2
*I *781:A1 I *D gf180mcu_fd_sc_mcu7t5v0__nand2_1
*I *864:Q O *D gf180mcu_fd_sc_mcu7t5v0__dffrnq_1
*CAP
1 *949:I 0.00031746
2 *781:A1 0.000288101
3 *864:Q 3.6366e-05
4 *167:6 0.000641927
5 *781:A1 *784:A2 0
6 *781:A1 *862:RN 0
7 *781:A1 *863:RN 0.000265501
8 *781:A1 *864:RN 0.000285235
9 *949:I *862:RN 0.000437795
10 *949:I *864:RN 2.28589e-05
11 *949:I *950:I 0.000419276
12 *761:A2 *949:I 0.000258243
*RES
1 *864:Q *167:6 4.812 
2 *167:6 *781:A1 7.516 
3 *167:6 *949:I 8.868 
*END

*D_NET *168 0.00833498
*CONN
*I *753:A2 I *D gf180mcu_fd_sc_mcu7t5v0__and2_1
*I *919:Z O *D gf180mcu_fd_sc_mcu7t5v0__buf_1
*CAP
1 *753:A2 0.00162395
2 *919:Z 0.00162395
3 *753:A2 *757:A2 7.68443e-05
4 *753:A2 *762:A1 0.000157853
5 *753:A2 *880:RN 0.00019592
6 *753:A2 *884:RN 0
7 *753:A2 *917:I 0.000446157
8 *753:A2 *935:I 0.000179963
9 *753:A2 *957:I 0.000131851
10 *753:A2 *960:I 0.00110699
11 *753:A2 *176:14 0.000451544
12 *753:A2 *176:38 0.000347834
13 *753:A2 *177:10 0.000318743
14 *753:A2 *177:12 0.000188961
15 *753:A2 *177:18 0.000384283
16 *753:A2 *192:12 0
17 *753:A2 *192:34 0.00046282
18 *753:A2 *195:10 0
19 *753:A2 *196:10 2.60017e-05
20 *753:A2 *201:17 0.000223392
21 *753:A2 *201:53 4.70047e-05
22 *881:D *753:A2 0.000317668
23 *883:D *753:A2 2.32529e-05
*RES
1 *919:Z *753:A2 44 
*END

*D_NET *169 0.00508642
*CONN
*I *950:I I *D gf180mcu_fd_sc_mcu7t5v0__buf_2
*I *784:A1 I *D gf180mcu_fd_sc_mcu7t5v0__nand2_1
*I *865:Q O *D gf180mcu_fd_sc_mcu7t5v0__dffrnq_1
*CAP
1 *950:I 0.000448381
2 *784:A1 0.000677628
3 *865:Q 0
4 *169:4 0.00112601
5 *784:A1 *864:RN 0
6 *784:A1 *865:RN 0
7 *950:I *862:RN 0.000970012
8 *950:I *883:RN 0.000241565
9 votes_out_phase[3] *950:I 0.000579191
10 *761:A2 *784:A1 0
11 *761:A2 *950:I 0.000565183
12 *762:A2 *950:I 2.49086e-05
13 *763:A2 *784:A1 0
14 *918:I *950:I 3.42651e-05
15 *949:I *950:I 0.000419276
*RES
1 *865:Q *169:4 4.5 
2 *169:4 *784:A1 18.284 
3 *169:4 *950:I 11.988 
*END

*D_NET *170 0.00969188
*CONN
*I *955:I I *D gf180mcu_fd_sc_mcu7t5v0__buf_1
*I *843:A2 I *D gf180mcu_fd_sc_mcu7t5v0__nand2_1
*I *841:A2 I *D gf180mcu_fd_sc_mcu7t5v0__nand2_1
*I *923:I I *D gf180mcu_fd_sc_mcu7t5v0__buf_2
*I *910:Z O *D gf180mcu_fd_sc_mcu7t5v0__dlyb_1
*CAP
1 *955:I 0.000166592
2 *843:A2 0
3 *841:A2 0
4 *923:I 0
5 *910:Z 0.00027029
6 *170:32 0.00069457
7 *170:25 0.00117718
8 *170:10 0.00091949
9 *955:I *171:12 5.63044e-06
10 *955:I *174:44 3.22108e-05
11 *955:I *186:10 0.000594106
12 *170:25 *851:A2 0.000153934
13 *170:25 *185:12 0
14 *170:25 *205:12 0.00031503
15 *170:32 *851:A2 7.88378e-05
16 *170:32 *859:RN 4.2019e-05
17 *170:32 *171:12 2.81522e-06
18 *170:32 *174:44 0.000171397
19 *170:32 *185:12 0
20 *779:A1 *170:10 0.00017298
21 *835:A1 *170:10 0.000478241
22 *837:A2 *170:10 0.000239345
23 *837:A2 *170:25 2.76367e-05
24 *841:A1 *170:32 0.000122244
25 *842:B *170:25 0.000699172
26 *924:I *170:25 0.000256274
27 *942:I *170:10 0.00170697
28 *942:I *170:25 0.000939932
29 *69:12 *170:10 0.000182219
30 *115:8 *170:10 0.00024276
*RES
1 *910:Z *170:10 14.2 
2 *170:10 *923:I 9 
3 *170:10 *170:25 12.924 
4 *170:25 *841:A2 4.5 
5 *170:25 *170:32 4.264 
6 *170:32 *843:A2 4.5 
7 *170:32 *955:I 15.372 
*END

*D_NET *171 0.0112634
*CONN
*I *849:A2 I *D gf180mcu_fd_sc_mcu7t5v0__nand2_1
*I *781:A2 I *D gf180mcu_fd_sc_mcu7t5v0__nand2_1
*I *784:A2 I *D gf180mcu_fd_sc_mcu7t5v0__nand2_1
*I *847:A2 I *D gf180mcu_fd_sc_mcu7t5v0__nand2_1
*I *845:A2 I *D gf180mcu_fd_sc_mcu7t5v0__nand2_1
*I *955:Z O *D gf180mcu_fd_sc_mcu7t5v0__buf_1
*CAP
1 *849:A2 0
2 *781:A2 0.000149416
3 *784:A2 0.000445331
4 *847:A2 0
5 *845:A2 7.2914e-05
6 *955:Z 0.000782556
7 *171:42 0.00143836
8 *171:34 0.00101911
9 *171:27 0.000304675
10 *171:12 0.000984655
11 *784:A2 *863:RN 0
12 *784:A2 *864:RN 0
13 *171:12 *851:A2 0.00104657
14 *171:12 *174:44 6.48816e-05
15 *171:12 *174:55 4.74219e-05
16 *171:27 *851:A2 0.00119297
17 *171:34 *851:A2 0.00112071
18 *171:42 *851:A2 0.00021626
19 *781:A1 *784:A2 0
20 *782:B *781:A2 0
21 *782:B *171:42 0
22 *845:A1 *845:A2 0.000157213
23 *845:A1 *171:12 0.000179413
24 *845:A1 *171:27 0.000113027
25 *847:A1 *171:34 0.000256274
26 *849:A1 *171:42 0.000265501
27 *851:A1 *171:42 0.000265501
28 *860:D *171:12 6.03575e-05
29 *862:D *171:42 0
30 *863:D *171:42 0
31 *871:D *845:A2 0.000122244
32 *871:D *171:27 0.000343768
33 *871:D *171:34 4.82113e-05
34 *871:CLK *171:12 0.00055766
35 *955:I *171:12 5.63044e-06
36 *170:32 *171:12 2.81522e-06
*RES
1 *955:Z *171:12 17.216 
2 *171:12 *845:A2 9.832 
3 *171:12 *171:27 7.724 
4 *171:27 *847:A2 4.5 
5 *171:27 *171:34 3.016 
6 *171:34 *171:42 11.468 
7 *171:42 *784:A2 12.016 
8 *171:42 *781:A2 10.352 
9 *171:34 *849:A2 4.5 
*END

*D_NET *172 0.0124549
*CONN
*I *834:A2 I *D gf180mcu_fd_sc_mcu7t5v0__nand2_1
*I *817:A2 I *D gf180mcu_fd_sc_mcu7t5v0__nand2_1
*I *823:A1 I *D gf180mcu_fd_sc_mcu7t5v0__nand2_1
*I *923:Z O *D gf180mcu_fd_sc_mcu7t5v0__buf_2
*CAP
1 *834:A2 0
2 *817:A2 0
3 *823:A1 0.000237308
4 *923:Z 0.000713481
5 *172:22 0.00167543
6 *172:14 0.0021516
7 *823:A1 *878:RN 4.07478e-05
8 *823:A1 *188:10 0.000197059
9 *823:A1 *191:22 0.000428493
10 *769:A2 *172:22 9.76253e-05
11 *769:A3 *172:22 0.000947077
12 *793:A4 *172:22 1.18566e-06
13 *821:A1 *172:22 6.09406e-06
14 *822:I *172:22 0
15 *823:A2 *823:A1 0.000419276
16 *824:A1 *172:22 0
17 *824:A2 *172:22 0.000107033
18 *825:A4 *823:A1 0.000119964
19 *832:B *172:22 9.73518e-05
20 *834:A1 *172:14 0.000195708
21 *834:A1 *172:22 3.42651e-05
22 *835:B *172:14 0.00021876
23 *836:A2 *172:14 8.63569e-05
24 *837:A2 *172:14 0.000301767
25 *840:B1 *823:A1 3.50308e-05
26 *840:B1 *172:22 3.24673e-05
27 *842:B *172:14 2.17484e-05
28 *854:CLK *172:14 5.6943e-05
29 *855:D *172:14 3.22108e-05
30 *856:D *172:14 0.000622658
31 *858:D *172:14 0.000139908
32 *869:CLK *172:22 0
33 *65:20 *823:A1 0
34 *65:20 *172:22 0
35 *65:40 *172:22 0
36 *85:55 *823:A1 0
37 *106:8 *823:A1 1.62892e-05
38 *106:8 *172:22 5.65788e-06
39 *115:8 *172:14 0.00298965
40 *153:29 *172:22 0.000138538
41 *153:40 *172:22 0.000287172
*RES
1 *923:Z *172:14 24.836 
2 *172:14 *172:22 17.084 
3 *172:22 *823:A1 11.912 
4 *172:22 *817:A2 9 
5 *172:14 *834:A2 4.5 
*END

*D_NET *173 0.0104895
*CONN
*I *851:A2 I *D gf180mcu_fd_sc_mcu7t5v0__nand2_1
*I *956:Z O *D gf180mcu_fd_sc_mcu7t5v0__dlyb_1
*CAP
1 *851:A2 0.00246832
2 *956:Z 0.00246832
3 *851:A2 *861:RN 0
4 *851:A2 *174:55 0
5 *844:B *851:A2 0.000410048
6 *846:B *851:A2 0.000665703
7 *849:A1 *851:A2 9.09749e-05
8 *859:D *851:A2 1.13542e-05
9 *871:D *851:A2 7.87395e-06
10 *871:CLK *851:A2 0.00055766
11 *947:I *851:A2 0
12 *170:25 *851:A2 0.000153934
13 *170:32 *851:A2 7.88378e-05
14 *171:12 *851:A2 0.00104657
15 *171:27 *851:A2 0.00119297
16 *171:34 *851:A2 0.00112071
17 *171:42 *851:A2 0.00021626
*RES
1 *956:Z *851:A2 33.336 
*END

*D_NET *174 0.0203525
*CONN
*I *852:A1 I *D gf180mcu_fd_sc_mcu7t5v0__oai21_1
*I *785:A1 I *D gf180mcu_fd_sc_mcu7t5v0__oai21_1
*I *782:A1 I *D gf180mcu_fd_sc_mcu7t5v0__oai21_1
*I *848:A1 I *D gf180mcu_fd_sc_mcu7t5v0__oai21_1
*I *850:A1 I *D gf180mcu_fd_sc_mcu7t5v0__oai21_1
*I *846:A1 I *D gf180mcu_fd_sc_mcu7t5v0__oai21_1
*I *844:A1 I *D gf180mcu_fd_sc_mcu7t5v0__oai21_1
*I *842:A1 I *D gf180mcu_fd_sc_mcu7t5v0__oai21_1
*I *924:Z O *D gf180mcu_fd_sc_mcu7t5v0__buf_2
*CAP
1 *852:A1 0
2 *785:A1 0.00031635
3 *782:A1 0.000308373
4 *848:A1 0
5 *850:A1 0.000920183
6 *846:A1 0
7 *844:A1 0.000332693
8 *842:A1 0.00100594
9 *924:Z 4.12535e-05
10 *174:90 0.00102181
11 *174:86 0.000785106
12 *174:55 0.00180723
13 *174:44 0.00189431
14 *174:31 0.00165789
15 *174:6 0.00175314
16 *842:A1 *856:RN 0.000830209
17 *842:A1 *929:I 2.38773e-05
18 *842:A1 *184:8 0.000384123
19 *842:A1 *185:16 0.000222793
20 *842:A1 *205:12 0
21 *844:A1 *186:10 3.41988e-05
22 *174:6 *185:16 1.91479e-06
23 *174:31 *185:12 0.00153929
24 *174:31 *185:16 7.13117e-05
25 *174:44 *859:RN 5.37778e-05
26 *174:44 *860:RN 6.38863e-05
27 *174:55 *861:RN 0.0002623
28 phase_state[1] *842:A1 0.000125685
29 votes_in_phase[0] *174:31 0.000169099
30 votes_in_phase[2] *174:55 0
31 *805:A2 *850:A1 3.17817e-05
32 *806:A2 *850:A1 5.02917e-06
33 *807:A2 *850:A1 0.000151801
34 *836:A2 *842:A1 6.22117e-05
35 *842:B *842:A1 0.000242809
36 *843:A1 *844:A1 3.48215e-05
37 *843:A1 *174:31 4.33994e-05
38 *844:B *844:A1 4.90573e-05
39 *847:A1 *174:55 0.000111658
40 *851:A2 *174:55 0
41 *853:CLK *842:A1 8.87924e-05
42 *854:CLK *842:A1 0.000199834
43 *860:D *174:44 0.000500772
44 *862:D *174:86 0.000121633
45 *862:CLK *782:A1 6.18411e-06
46 *862:CLK *174:86 0.000111416
47 *862:CLK *174:90 0.000102068
48 *863:D *174:90 0.000149923
49 *864:D *782:A1 0.000243589
50 *865:D *785:A1 0
51 *871:D *850:A1 9.0311e-05
52 *871:D *174:55 0.000189298
53 *944:I *174:44 0.000170864
54 *955:I *174:44 3.22108e-05
55 *98:12 *850:A1 1.07369e-05
56 *139:6 *782:A1 4.07478e-05
57 *139:6 *785:A1 0.000460013
58 *139:20 *785:A1 0.000569975
59 *139:41 *782:A1 0.000297208
60 *139:41 *174:90 0.000116578
61 *152:14 *782:A1 0
62 *161:10 *174:31 9.41008e-05
63 *162:10 *174:31 0.000113219
64 *163:10 *174:44 0
65 *163:10 *174:55 0
66 *170:32 *174:44 0.000171397
67 *171:12 *174:44 6.48816e-05
68 *171:12 *174:55 4.74219e-05
*RES
1 *924:Z *174:6 4.812 
2 *174:6 *842:A1 25.356 
3 *174:6 *174:31 12.508 
4 *174:31 *844:A1 11.808 
5 *174:31 *174:44 10.428 
6 *174:44 *846:A1 4.5 
7 *174:44 *174:55 14.276 
8 *174:55 *850:A1 12.952 
9 *174:55 *848:A1 9 
10 *850:A1 *174:86 8.14 
11 *174:86 *174:90 3.848 
12 *174:90 *782:A1 7.308 
13 *174:90 *785:A1 7.828 
14 *174:86 *852:A1 4.5 
*END

*D_NET *175 0.0187261
*CONN
*I *796:A1 I *D gf180mcu_fd_sc_mcu7t5v0__nor2_1
*I *805:A1 I *D gf180mcu_fd_sc_mcu7t5v0__nor2_1
*I *807:A1 I *D gf180mcu_fd_sc_mcu7t5v0__nor2_1
*I *815:A1 I *D gf180mcu_fd_sc_mcu7t5v0__nor2_1
*I *814:A2 I *D gf180mcu_fd_sc_mcu7t5v0__nor2_1
*I *813:A1 I *D gf180mcu_fd_sc_mcu7t5v0__nor2_1
*I *810:A1 I *D gf180mcu_fd_sc_mcu7t5v0__nor2_1
*I *801:A1 I *D gf180mcu_fd_sc_mcu7t5v0__nor2_1
*I *925:Z O *D gf180mcu_fd_sc_mcu7t5v0__buf_2
*CAP
1 *796:A1 0.000687755
2 *805:A1 0
3 *807:A1 0.000197326
4 *815:A1 0.000567918
5 *814:A2 0
6 *813:A1 2.23267e-05
7 *810:A1 0.000214494
8 *801:A1 0
9 *925:Z 2.70156e-05
10 *175:85 0.000659898
11 *175:63 0.00115276
12 *175:55 0.00109322
13 *175:29 0.00067692
14 *175:27 0.00279573
15 *175:14 0.00265867
16 *175:8 0.00106361
17 *807:A1 *775:A2 2.60017e-05
18 *810:A1 *914:I 4.09981e-05
19 *815:A1 *764:A1 0
20 *815:A1 *211:26 0.000224734
21 *175:27 *766:A2 0.000169167
22 *175:63 *211:26 0.000195812
23 *773:A2 *175:27 0.000105192
24 *774:A1 *175:29 0.000292328
25 *774:A2 *175:29 0
26 *775:A4 *175:29 0.000153825
27 *775:A4 *175:55 9.42233e-05
28 *775:A4 *175:85 8.87924e-05
29 *793:A4 *175:14 0
30 *805:A2 *807:A1 0.000109342
31 *805:A2 *175:85 1.71326e-05
32 *808:A2 *175:63 0
33 *809:A1 *175:63 0.000395255
34 *809:A2 *175:63 2.24654e-05
35 *810:A2 *810:A1 0.000113016
36 *810:A2 *175:29 0
37 *810:A2 *175:85 0
38 *811:A1 *175:29 7.36271e-05
39 *811:A1 *175:55 0.00026187
40 *811:A1 *175:63 0.000103788
41 *811:A1 *175:85 0.000107648
42 *812:A1 *175:63 1.23682e-05
43 *812:A2 *175:63 0.000554726
44 *813:A2 *813:A1 4.18157e-05
45 *814:A1 *175:63 0.000148864
46 *824:A1 *796:A1 5.40384e-05
47 *824:A1 *175:14 8.96201e-05
48 *830:B *807:A1 0
49 *830:B *175:85 4.17612e-05
50 *839:A2 *796:A1 0.000754501
51 *844:A2 *796:A1 4.87417e-05
52 *850:A2 *175:85 0.000170546
53 *868:CLK *796:A1 5.13977e-05
54 *869:D *796:A1 2.52289e-05
55 *869:D *175:14 7.60068e-05
56 *870:D *807:A1 3.4596e-05
57 *873:D *810:A1 0.000179953
58 *873:D *175:29 4.58772e-05
59 *874:D *815:A1 0.000408707
60 *874:CLK *815:A1 0
61 *875:D *815:A1 6.84289e-06
62 *875:D *175:63 4.03094e-05
63 *885:D *815:A1 0.000134054
64 *3:22 *813:A1 4.18157e-05
65 *79:10 *796:A1 6.89586e-05
66 *90:8 *796:A1 0.000218585
67 *113:26 *807:A1 0.000122244
68 *113:26 *175:8 7.02771e-05
69 *113:26 *175:85 0.000550736
70 *136:8 *796:A1 3.69129e-05
71 *141:10 *175:8 0.000188403
72 *152:22 *807:A1 0
73 *152:22 *175:85 9.5382e-05
*RES
1 *925:Z *175:8 9.52 
2 *175:8 *175:14 7.412 
3 *175:14 *801:A1 13.5 
4 *175:14 *175:27 18.748 
5 *175:27 *175:29 3.848 
6 *175:29 *810:A1 11.08 
7 *175:29 *813:A1 9.312 
8 *175:27 *175:55 0.728 
9 *175:55 *175:63 11.052 
10 *175:63 *814:A2 4.5 
11 *175:63 *815:A1 9.908 
12 *175:55 *175:85 9.18 
13 *175:85 *807:A1 15.164 
14 *175:85 *805:A1 4.5 
15 *175:8 *796:A1 16.696 
*END

*D_NET *176 0.0126735
*CONN
*I *756:A1 I *D gf180mcu_fd_sc_mcu7t5v0__and2_1
*I *761:A1 I *D gf180mcu_fd_sc_mcu7t5v0__and2_1
*I *752:A2 I *D gf180mcu_fd_sc_mcu7t5v0__and2_1
*I *926:I I *D gf180mcu_fd_sc_mcu7t5v0__buf_2
*I *755:A1 I *D gf180mcu_fd_sc_mcu7t5v0__and2_1
*I *911:Z O *D gf180mcu_fd_sc_mcu7t5v0__dlyb_1
*CAP
1 *756:A1 0
2 *761:A1 0.00164834
3 *752:A2 0.000274385
4 *926:I 0.000337779
5 *755:A1 0
6 *911:Z 0.000326925
7 *176:42 0.00224513
8 *176:38 0.00102423
9 *176:18 0.000398224
10 *176:14 0.00108919
11 *761:A1 *885:RN 0.000297332
12 *926:I *957:I 5.36452e-06
13 *926:I *177:10 1.40331e-05
14 *926:I *182:22 0
15 *176:14 *755:A2 0.000274703
16 *176:14 *917:I 0.00037585
17 *176:14 *960:I 6.99789e-05
18 *176:14 *177:47 1.19663e-05
19 *176:18 *755:A2 1.40331e-05
20 *176:38 *755:A2 0.000199998
21 *176:38 *756:A2 0.000376815
22 *176:38 *892:RN 9.09749e-05
23 *176:38 *960:I 0.000209937
24 *176:38 *196:10 0.000931135
25 *753:A2 *176:14 0.000451544
26 *753:A2 *176:38 0.000347834
27 *785:A2 *761:A1 0
28 *785:B *761:A1 0.000626417
29 *815:A2 *761:A1 0
30 *864:D *761:A1 4.9736e-05
31 *874:D *761:A1 4.09564e-05
32 *875:D *761:A1 0
33 *880:D *176:38 5.15285e-05
34 *880:CLK *176:14 1.18566e-06
35 *880:CLK *176:38 5.43041e-05
36 *882:D *761:A1 0.000173912
37 *886:D *176:14 0
38 *893:CLK *176:38 0.000241982
39 *893:CLK *176:42 0.000169099
40 *3:22 *176:42 0.000119299
41 *132:53 *176:42 3.72303e-05
42 *138:43 *176:14 9.2169e-05
*RES
1 *911:Z *176:14 14.2 
2 *176:14 *176:18 4.812 
3 *176:18 *755:A1 4.5 
4 *176:18 *926:I 6.372 
5 *176:14 *176:38 14.068 
6 *176:38 *176:42 7.516 
7 *176:42 *752:A2 10.976 
8 *176:42 *761:A1 23.664 
9 *176:38 *756:A1 4.5 
*END

*D_NET *177 0.0128292
*CONN
*I *760:A1 I *D gf180mcu_fd_sc_mcu7t5v0__and2_1
*I *759:A1 I *D gf180mcu_fd_sc_mcu7t5v0__and2_1
*I *758:A1 I *D gf180mcu_fd_sc_mcu7t5v0__and2_1
*I *757:A1 I *D gf180mcu_fd_sc_mcu7t5v0__and2_1
*I *753:A1 I *D gf180mcu_fd_sc_mcu7t5v0__and2_1
*I *754:A1 I *D gf180mcu_fd_sc_mcu7t5v0__and2_1
*I *926:Z O *D gf180mcu_fd_sc_mcu7t5v0__buf_2
*CAP
1 *760:A1 0.000743536
2 *759:A1 0.00021401
3 *758:A1 0.000113993
4 *757:A1 5.97405e-05
5 *753:A1 0
6 *754:A1 0.000346481
7 *926:Z 9.90908e-05
8 *177:66 0.00151612
9 *177:47 0.0017701
10 *177:18 0.00072662
11 *177:12 0.00047481
12 *177:10 0.00123155
13 *757:A1 *911:I 1.36398e-06
14 *758:A1 *758:A2 0.000179942
15 *759:A1 *759:A2 0.000661886
16 *760:A1 *182:22 7.77726e-05
17 *760:A1 *197:10 7.77726e-05
18 *177:10 *957:I 0.00110993
19 *177:12 *911:I 0.000450565
20 *177:12 *957:I 0.000241749
21 *177:18 *911:I 0.000513513
22 *177:18 *917:I 1.28023e-05
23 *177:18 *201:8 4.64872e-05
24 *177:47 *886:RN 2.11475e-05
25 *177:47 *890:RN 8.14679e-05
26 *177:47 *891:RN 0
27 *177:47 *198:6 4.4504e-06
28 *177:66 *758:A2 0.000146434
29 *177:66 *759:A2 6.062e-05
30 *177:66 *887:RN 0.000340424
31 *177:66 *198:6 0.000142373
32 *753:A2 *177:10 0.000318743
33 *753:A2 *177:12 0.000188961
34 *753:A2 *177:18 0.000384283
35 *886:D *757:A1 1.78817e-06
36 *889:D *760:A1 0
37 *890:D *754:A1 0
38 *890:CLK *754:A1 2.73715e-06
39 *906:I *177:47 3.4596e-05
40 *906:I *177:66 6.43437e-05
41 *926:I *177:10 1.40331e-05
42 *137:10 *177:66 0.00017065
43 *137:14 *758:A1 0
44 *137:53 *759:A1 0.000170382
45 *176:14 *177:47 1.19663e-05
*RES
1 *926:Z *177:10 12.12 
2 *177:10 *177:12 1.768 
3 *177:12 *177:18 9.284 
4 *177:18 *754:A1 6.996 
5 *177:18 *753:A1 4.5 
6 *177:12 *757:A1 9.312 
7 *177:10 *177:47 15.968 
8 *177:47 *758:A1 10.144 
9 *177:47 *177:66 14.512 
10 *177:66 *759:A1 11.808 
11 *177:66 *760:A1 13.784 
*END

*D_NET *178 0.0064176
*CONN
*I *957:I I *D gf180mcu_fd_sc_mcu7t5v0__buf_1
*I *911:I I *D gf180mcu_fd_sc_mcu7t5v0__dlyb_1
*I *912:Z O *D gf180mcu_fd_sc_mcu7t5v0__dlyb_1
*CAP
1 *957:I 0.000133005
2 *911:I 0.000223477
3 *912:Z 0
4 *178:6 0.000356482
5 *911:I *757:A2 0.000614671
6 *911:I *201:8 0.000137027
7 *957:I *757:A2 0.00201399
8 *957:I *182:22 5.36452e-06
9 *753:A2 *957:I 0.000131851
10 *757:A1 *911:I 1.36398e-06
11 *886:D *911:I 0.000479251
12 *926:I *957:I 5.36452e-06
13 *177:10 *957:I 0.00110993
14 *177:12 *911:I 0.000450565
15 *177:12 *957:I 0.000241749
16 *177:18 *911:I 0.000513513
*RES
1 *912:Z *178:6 9 
2 *178:6 *911:I 12.952 
3 *178:6 *957:I 14.408 
*END

*D_NET *179 0.0062059
*CONN
*I *757:A2 I *D gf180mcu_fd_sc_mcu7t5v0__and2_1
*I *920:Z O *D gf180mcu_fd_sc_mcu7t5v0__buf_1
*CAP
1 *757:A2 0.000138193
2 *920:Z 0.000138193
3 *757:A2 *182:22 0.000103788
4 *757:A2 *201:8 0.00121107
5 *757:A2 *201:17 0.00187694
6 *753:A2 *757:A2 7.68443e-05
7 *911:I *757:A2 0.000614671
8 *920:I *757:A2 3.22108e-05
9 *957:I *757:A2 0.00201399
*RES
1 *920:Z *757:A2 26.112 
*END

*D_NET *180 0.00894851
*CONN
*I *838:A1 I *D gf180mcu_fd_sc_mcu7t5v0__nand3_1
*I *771:A1 I *D gf180mcu_fd_sc_mcu7t5v0__nand2_2
*I *745:I I *D gf180mcu_fd_sc_mcu7t5v0__clkinv_1
*I *927:Z O *D gf180mcu_fd_sc_mcu7t5v0__clkbuf_1
*CAP
1 *838:A1 0.00115061
2 *771:A1 1.91431e-05
3 *745:I 5.16603e-05
4 *927:Z 0.000436443
5 *180:21 0.00141115
6 *180:10 0.000729496
7 *180:10 *780:A1 0.000186419
8 *771:A2 *180:10 4.58772e-05
9 *771:A2 *180:21 0.000172055
10 *780:A2 *180:10 0.000177012
11 *831:A2 *180:10 0
12 *833:A2 *838:A1 0.000502966
13 *836:A2 *838:A1 8.0095e-05
14 *839:B *838:A1 2.39523e-06
15 *853:D *838:A1 0
16 *853:CLK *838:A1 0.000560747
17 *856:D *838:A1 5.17348e-05
18 *858:D *838:A1 0.00083826
19 *868:D *745:I 0
20 *868:D *771:A1 0.000110334
21 *868:CLK *771:A1 0.000276007
22 *895:I *180:10 7.91166e-06
23 *924:I *838:A1 3.85294e-05
24 *956:I *180:21 0
25 *69:8 *180:10 0.000191707
26 *70:8 *838:A1 1.9026e-05
27 *70:8 *180:21 4.40795e-05
28 *79:10 *180:10 0
29 *112:18 *180:10 0.000528937
30 *135:18 *838:A1 7.60693e-05
31 *135:20 *838:A1 0.000420257
32 *135:22 *838:A1 0.000330746
33 *141:10 *180:10 0.000488844
*RES
1 *927:Z *180:10 14.824 
2 *180:10 *745:I 9.312 
3 *180:10 *180:21 2.184 
4 *180:21 *771:A1 9.728 
5 *180:21 *838:A1 21.168 
*END

*D_NET *181 0.012836
*CONN
*I *780:A1 I *D gf180mcu_fd_sc_mcu7t5v0__nand2_2
*I *927:I I *D gf180mcu_fd_sc_mcu7t5v0__clkbuf_1
*I *825:A1 I *D gf180mcu_fd_sc_mcu7t5v0__nand4_1
*I *816:A1 I *D gf180mcu_fd_sc_mcu7t5v0__nand3_1
*I *928:Z O *D gf180mcu_fd_sc_mcu7t5v0__clkbuf_2
*CAP
1 *780:A1 0.000415443
2 *927:I 2.87802e-05
3 *825:A1 0.000310899
4 *816:A1 0.000193675
5 *928:Z 0.000404788
6 *181:32 0.000968649
7 *181:19 0.000835325
8 *181:8 0.000598463
9 *780:A1 *868:RN 7.40254e-05
10 *825:A1 *878:RN 6.34305e-05
11 *181:8 *182:39 3.3698e-05
12 *181:8 *191:22 1.63544e-05
13 *748:I *816:A1 2.46831e-05
14 *749:I *825:A1 0
15 *768:A3 *825:A1 0.000564417
16 *768:A3 *181:8 2.39156e-06
17 *769:A3 *181:32 0.000736815
18 *780:A2 *780:A1 6.49835e-06
19 *780:A2 *181:32 2.60017e-05
20 *818:B *816:A1 0.00132961
21 *818:B *181:8 0.000217862
22 *823:A2 *181:8 7.02352e-05
23 *824:A1 *780:A1 0
24 *824:A1 *181:32 0
25 *824:B *181:8 0.000256322
26 *825:A3 *825:A1 6.18411e-06
27 *825:A3 *181:8 0.000125177
28 *825:A4 *181:8 0.000711445
29 *828:A2 *825:A1 2.504e-05
30 *869:CLK *181:32 0.00036321
31 *876:D *816:A1 8.81993e-05
32 *66:53 *816:A1 0.00110422
33 *66:53 *181:8 0.000841448
34 *79:10 *780:A1 5.10196e-05
35 *85:10 *181:8 6.41811e-05
36 *85:55 *181:8 0.000830576
37 *104:14 *825:A1 0.00015249
38 *104:14 *181:32 6.28659e-05
39 *112:18 *780:A1 0.000251178
40 *113:26 *927:I 0.000269917
41 *141:10 *927:I 0.000104561
42 *153:42 *181:32 5.44006e-06
43 *154:19 *825:A1 2.2201e-05
44 *154:27 *825:A1 6.17392e-05
45 *154:27 *181:32 0.000328794
46 *156:10 *181:8 1.36398e-06
47 *180:10 *780:A1 0.000186419
*RES
1 *928:Z *181:8 11.156 
2 *181:8 *816:A1 8.868 
3 *181:8 *181:19 4.5 
4 *181:19 *825:A1 12.536 
5 *181:19 *181:32 6.136 
6 *181:32 *927:I 9.728 
7 *181:32 *780:A1 12.328 
*END

*D_NET *182 0.0177114
*CONN
*I *786:A2 I *D gf180mcu_fd_sc_mcu7t5v0__nand3_1
*I *787:A1 I *D gf180mcu_fd_sc_mcu7t5v0__nand2_1
*I *928:I I *D gf180mcu_fd_sc_mcu7t5v0__clkbuf_2
*I *789:A1 I *D gf180mcu_fd_sc_mcu7t5v0__nand2_1
*I *957:Z O *D gf180mcu_fd_sc_mcu7t5v0__buf_1
*CAP
1 *786:A2 0
2 *787:A1 0.000110349
3 *928:I 3.73925e-05
4 *789:A1 3.11931e-05
5 *957:Z 0.0022018
6 *182:39 0.000310651
7 *182:30 0.00062007
8 *182:22 0.00262777
9 *787:A1 *766:A2 0
10 *789:A1 *191:22 0
11 *928:I *191:22 0
12 *182:22 *752:A1 0.002051
13 *182:22 *760:A2 0.000265501
14 *182:22 *914:I 9.78641e-05
15 *182:22 *939:I 1.40295e-05
16 *182:22 *960:I 0.000596423
17 *182:22 *196:10 0.000111888
18 *182:22 *197:10 7.17269e-05
19 *182:22 *203:8 0.000337769
20 *182:22 *216:14 0.00261247
21 *182:22 *216:20 0.000134354
22 *182:30 *788:A1 0.000274703
23 *182:30 *867:RN 0.000323678
24 *182:30 *191:22 0.000176614
25 *182:30 *216:20 1.40331e-05
26 *757:A2 *182:22 0.000103788
27 *760:A1 *182:22 7.77726e-05
28 *786:A3 *182:22 0.000876213
29 *788:A2 *928:I 0.000182208
30 *788:A2 *182:30 3.38251e-05
31 *788:A2 *182:39 1.36858e-05
32 *788:B *182:30 0.000113027
33 *789:A2 *789:A1 1.71326e-05
34 *791:A2 *182:22 0.00103922
35 *791:A2 *182:30 0
36 *866:D *182:30 3.49662e-05
37 *866:CLK *182:22 2.46717e-05
38 *866:CLK *182:30 0
39 *872:CLK *182:22 0.000663763
40 *880:CLK *182:22 0.000569975
41 *907:I *182:22 0
42 *926:I *182:22 0
43 *957:I *182:22 5.36452e-06
44 *66:32 *787:A1 0.00052233
45 *66:53 *928:I 4.67771e-06
46 *134:29 *182:22 0.000373803
47 *181:8 *182:39 3.3698e-05
*RES
1 *957:Z *182:22 32.892 
2 *182:22 *182:30 13.16 
3 *182:30 *789:A1 4.812 
4 *182:30 *182:39 1.56 
5 *182:39 *928:I 5.02 
6 *182:39 *787:A1 14.852 
7 *182:22 *786:A2 4.5 
*END

*D_NET *183 0.00602378
*CONN
*I *868:RN I *D gf180mcu_fd_sc_mcu7t5v0__dffrnq_1
*I *930:I I *D gf180mcu_fd_sc_mcu7t5v0__buf_2
*I *869:RN I *D gf180mcu_fd_sc_mcu7t5v0__dffrnq_1
*I *913:Z O *D gf180mcu_fd_sc_mcu7t5v0__dlyb_1
*CAP
1 *868:RN 0.00070362
2 *930:I 0.000467753
3 *869:RN 0.000870806
4 *913:Z 4.61696e-05
5 *183:6 0.000681108
6 *780:A1 *868:RN 7.40254e-05
7 *798:A4 *930:I 0
8 *839:A2 *868:RN 0.000603848
9 *844:A2 *868:RN 0.00132524
10 *844:A2 *930:I 9.59114e-05
11 *895:I *868:RN 0.000466399
12 *897:I *868:RN 0.000134173
13 *79:10 *868:RN 3.47803e-05
14 *112:18 *868:RN 0.000135657
15 *132:93 *868:RN 0.000277987
16 *141:10 *868:RN 4.6353e-05
17 *142:10 *869:RN 4.79815e-05
18 *142:10 *183:6 1.19663e-05
*RES
1 *913:Z *183:6 4.812 
2 *183:6 *869:RN 5.644 
3 *183:6 *930:I 17.14 
4 *869:RN *868:RN 27.672 
*END

*D_NET *184 0.00599147
*CONN
*I *853:RN I *D gf180mcu_fd_sc_mcu7t5v0__dffrnq_1
*I *857:RN I *D gf180mcu_fd_sc_mcu7t5v0__dffrnq_1
*I *854:RN I *D gf180mcu_fd_sc_mcu7t5v0__dffrnq_1
*I *929:Z O *D gf180mcu_fd_sc_mcu7t5v0__clkbuf_2
*CAP
1 *853:RN 5.16421e-05
2 *857:RN 0.000532853
3 *854:RN 0.000420882
4 *929:Z 0.00100155
5 *184:10 0.00120189
6 *184:8 0.00130134
7 *184:8 *750:I 6.77538e-05
8 *184:8 *204:12 0.000392237
9 *184:10 *204:12 0.00027345
10 *832:A1 *857:RN 1.26446e-05
11 *832:A2 *857:RN 0.000331461
12 *834:A1 *857:RN 0
13 *838:A2 *184:8 0
14 *842:A1 *184:8 0.000384123
15 *854:D *857:RN 0
16 *854:CLK *184:8 0
17 *940:I *854:RN 0
18 *160:8 *857:RN 1.96514e-05
*RES
1 *929:Z *184:8 18.88 
2 *184:8 *184:10 2.808 
3 *184:10 *854:RN 12.328 
4 *184:10 *857:RN 13.056 
5 *184:8 *853:RN 9.312 
*END

*D_NET *185 0.00716826
*CONN
*I *929:I I *D gf180mcu_fd_sc_mcu7t5v0__clkbuf_2
*I *858:RN I *D gf180mcu_fd_sc_mcu7t5v0__dffrnq_1
*I *855:RN I *D gf180mcu_fd_sc_mcu7t5v0__dffrnq_1
*I *856:RN I *D gf180mcu_fd_sc_mcu7t5v0__dffrnq_1
*I *958:Z O *D gf180mcu_fd_sc_mcu7t5v0__buf_1
*CAP
1 *929:I 0.000178374
2 *858:RN 0
3 *855:RN 0
4 *856:RN 0.000411884
5 *958:Z 0.000501865
6 *185:16 0.000480283
7 *185:12 0.000748639
8 *856:RN *205:12 1.53953e-05
9 *185:12 *859:RN 0.0011207
10 *185:12 *186:12 3.4596e-05
11 phase_state[0] *929:I 0.000178541
12 *841:A1 *185:12 5.13239e-06
13 *842:A1 *856:RN 0.000830209
14 *842:A1 *929:I 2.38773e-05
15 *842:A1 *185:16 0.000222793
16 *842:B *856:RN 0.000178725
17 *842:B *185:12 8.02278e-05
18 *842:B *185:16 0.000235781
19 *159:10 *929:I 0.000254943
20 *162:10 *185:12 5.37778e-05
21 *170:25 *185:12 0
22 *170:32 *185:12 0
23 *174:6 *185:16 1.91479e-06
24 *174:31 *185:12 0.00153929
25 *174:31 *185:16 7.13117e-05
*RES
1 *958:Z *185:12 11.572 
2 *185:12 *185:16 3.12 
3 *185:16 *856:RN 7.516 
4 *185:16 *855:RN 4.5 
5 *185:12 *858:RN 4.5 
6 *856:RN *929:I 11.288 
*END

*D_NET *186 0.00521776
*CONN
*I *860:RN I *D gf180mcu_fd_sc_mcu7t5v0__dffrnq_1
*I *958:I I *D gf180mcu_fd_sc_mcu7t5v0__buf_1
*I *859:RN I *D gf180mcu_fd_sc_mcu7t5v0__dffrnq_1
*I *930:Z O *D gf180mcu_fd_sc_mcu7t5v0__buf_2
*CAP
1 *860:RN 0.000276213
2 *958:I 0
3 *859:RN 0.000211691
4 *930:Z 0.000265027
5 *186:12 0.00024276
6 *186:10 0.000572309
7 *843:A1 *186:10 0.000510584
8 *844:A1 *186:10 3.41988e-05
9 *844:B *186:10 0.000355286
10 *944:I *859:RN 3.4596e-05
11 *944:I *860:RN 0.000629167
12 *944:I *186:12 6.91919e-05
13 *955:I *186:10 0.000594106
14 *162:10 *186:10 0.000107648
15 *170:32 *859:RN 4.2019e-05
16 *174:44 *859:RN 5.37778e-05
17 *174:44 *860:RN 6.38863e-05
18 *185:12 *859:RN 0.0011207
19 *185:12 *186:12 3.4596e-05
*RES
1 *930:Z *186:10 17.14 
2 *186:10 *186:12 0.312 
3 *186:12 *859:RN 7.516 
4 *186:12 *958:I 4.5 
5 *186:10 *860:RN 7.308 
*END

*D_NET *187 0.00484814
*CONN
*I *933:I I *D gf180mcu_fd_sc_mcu7t5v0__clkbuf_2
*I *932:I I *D gf180mcu_fd_sc_mcu7t5v0__clkbuf_2
*I *866:RN I *D gf180mcu_fd_sc_mcu7t5v0__dffrnq_1
*I *914:Z O *D gf180mcu_fd_sc_mcu7t5v0__dlyb_1
*CAP
1 *933:I 0
2 *932:I 0.000118176
3 *866:RN 0.000304596
4 *914:Z 0.000937902
5 *187:27 0.000145765
6 *187:16 0.00127009
7 *866:RN *212:43 0.000154193
8 *932:I *212:12 4.55288e-05
9 *187:16 *767:A1 0.000469679
10 *187:16 *211:26 9.67894e-05
11 *187:16 *217:21 1.23478e-05
12 *187:27 *212:43 6.18411e-06
13 *773:A1 *187:16 3.22108e-05
14 *773:A2 *187:16 0.000186801
15 *773:A4 *187:16 0.000105345
16 *875:CLK *187:16 0.000438819
17 *65:14 *866:RN 8.64724e-05
18 *65:14 *187:16 1.63544e-05
19 *66:14 *187:16 0
20 *66:32 *866:RN 2.11493e-05
21 *66:32 *187:16 4.89237e-05
22 *132:8 *187:16 6.34017e-05
23 *132:17 *187:16 0
24 *132:33 *187:16 1.40331e-05
25 *134:12 *187:16 0.000249521
26 *134:21 *187:16 2.38656e-05
*RES
1 *914:Z *187:16 22.028 
2 *187:16 *866:RN 7.412 
3 *187:16 *187:27 0.312 
4 *187:27 *932:I 14.436 
5 *187:27 *933:I 4.5 
*END

*D_NET *188 0.00466616
*CONN
*I *879:RN I *D gf180mcu_fd_sc_mcu7t5v0__dffrnq_1
*I *877:RN I *D gf180mcu_fd_sc_mcu7t5v0__dffrnq_1
*I *876:RN I *D gf180mcu_fd_sc_mcu7t5v0__dffrnq_1
*I *931:Z O *D gf180mcu_fd_sc_mcu7t5v0__clkbuf_2
*CAP
1 *879:RN 5.7877e-05
2 *877:RN 0.000175769
3 *876:RN 0.000364946
4 *931:Z 0.000323854
5 *188:12 0.00127086
6 *188:10 0.00111188
7 *188:12 *878:RN 1.01781e-05
8 *819:A1 *876:RN 5.52588e-05
9 *820:B2 *876:RN 0.000203575
10 *820:B2 *188:12 0.000114689
11 *823:A1 *188:10 0.000197059
12 *826:B1 *879:RN 4.63426e-05
13 *826:B1 *188:12 4.87717e-05
14 *827:A2 *188:10 1.85596e-05
15 *828:A2 *188:12 0.000381081
16 *828:A3 *188:10 0.000115133
17 *85:16 *188:10 0
18 *85:22 *188:10 6.33007e-05
19 *106:8 *188:10 1.95034e-05
20 *153:12 *876:RN 8.75131e-05
21 *154:19 *877:RN 0
*RES
1 *931:Z *188:10 16.308 
2 *188:10 *188:12 5.72 
3 *188:12 *876:RN 7.412 
4 *188:12 *877:RN 6.164 
5 *188:10 *879:RN 5.02 
*END

*D_NET *189 0.00772731
*CONN
*I *870:RN I *D gf180mcu_fd_sc_mcu7t5v0__dffrnq_1
*I *913:I I *D gf180mcu_fd_sc_mcu7t5v0__dlyb_1
*I *871:RN I *D gf180mcu_fd_sc_mcu7t5v0__dffrnq_1
*I *932:Z O *D gf180mcu_fd_sc_mcu7t5v0__clkbuf_2
*CAP
1 *870:RN 0.000179581
2 *913:I 0.000237825
3 *871:RN 0
4 *932:Z 0.000871103
5 *189:19 0.000639054
6 *189:10 0.00109275
7 *773:A3 *189:10 8.10026e-05
8 *798:A3 *189:10 0
9 *805:A2 *913:I 0.000328552
10 *806:A1 *913:I 0.0011207
11 *806:A2 *913:I 0.000449698
12 *829:B *189:10 0
13 *846:A2 *870:RN 4.13292e-05
14 *846:A2 *189:19 1.25277e-05
15 *861:CLK *870:RN 0.000826754
16 *861:CLK *913:I 0.000129593
17 *97:6 *913:I 0.000663752
18 *98:12 *870:RN 0.000241839
19 *113:26 *189:10 0.000143476
20 *126:28 *189:10 0.0004162
21 *136:26 *913:I 3.10787e-05
22 *136:33 *913:I 0.000220496
23 *152:37 *189:10 0
*RES
1 *932:Z *189:10 16.072 
2 *189:10 *871:RN 9 
3 *189:10 *189:19 1.352 
4 *189:19 *913:I 14.72 
5 *189:19 *870:RN 11.912 
*END

*D_NET *190 0.00334099
*CONN
*I *917:I I *D gf180mcu_fd_sc_mcu7t5v0__dlyb_1
*I *921:Z O *D gf180mcu_fd_sc_mcu7t5v0__buf_1
*CAP
1 *917:I 0.00115068
2 *921:Z 0.00115068
3 *753:A2 *917:I 0.000446157
4 *891:D *917:I 0.000120236
5 *138:43 *917:I 8.45858e-05
6 *176:14 *917:I 0.00037585
7 *177:18 *917:I 1.28023e-05
*RES
1 *921:Z *917:I 29.648 
*END

*D_NET *191 0.00861517
*CONN
*I *867:RN I *D gf180mcu_fd_sc_mcu7t5v0__dffrnq_1
*I *931:I I *D gf180mcu_fd_sc_mcu7t5v0__clkbuf_2
*I *878:RN I *D gf180mcu_fd_sc_mcu7t5v0__dffrnq_1
*I *933:Z O *D gf180mcu_fd_sc_mcu7t5v0__clkbuf_2
*CAP
1 *867:RN 0.000494652
2 *931:I 0
3 *878:RN 0.000378469
4 *933:Z 0.000309249
5 *191:22 0.00106973
6 *191:12 0.00149516
7 *867:RN *766:A1 0
8 *867:RN *216:20 0.000180746
9 *867:RN *217:8 2.73715e-06
10 *191:12 *766:A2 0.000688298
11 *773:A4 *191:12 3.56165e-05
12 *788:A2 *867:RN 2.16732e-05
13 *788:B *191:22 2.87576e-05
14 *789:A1 *191:22 0
15 *823:A1 *878:RN 4.07478e-05
16 *823:A1 *191:22 0.000428493
17 *823:A2 *878:RN 0.000129604
18 *823:A2 *191:22 3.42651e-05
19 *825:A1 *878:RN 6.34305e-05
20 *825:A4 *878:RN 5.63044e-06
21 *826:B1 *878:RN 3.4596e-05
22 *826:B1 *191:22 0
23 *827:A2 *878:RN 0.000438819
24 *828:A2 *878:RN 7.27859e-05
25 *828:A3 *878:RN 0.000418233
26 *866:D *191:12 0.000283521
27 *866:D *191:22 0.000537687
28 *928:I *191:22 0
29 *65:8 *191:12 0.000226085
30 *66:53 *191:22 0
31 *85:10 *191:22 0.000419276
32 *85:16 *191:22 2.43266e-05
33 *85:22 *191:22 9.8328e-06
34 *156:10 *878:RN 0.000215929
35 *181:8 *191:22 1.63544e-05
36 *182:30 *867:RN 0.000323678
37 *182:30 *191:22 0.000176614
38 *188:12 *878:RN 1.01781e-05
*RES
1 *933:Z *191:12 13.264 
2 *191:12 *191:22 11.156 
3 *191:22 *878:RN 17.348 
4 *191:22 *931:I 4.5 
5 *191:12 *867:RN 13.264 
*END

*D_NET *192 0.00416059
*CONN
*I *935:I I *D gf180mcu_fd_sc_mcu7t5v0__buf_2
*I *936:I I *D gf180mcu_fd_sc_mcu7t5v0__buf_2
*I *893:RN I *D gf180mcu_fd_sc_mcu7t5v0__dffrnq_1
*I *884:RN I *D gf180mcu_fd_sc_mcu7t5v0__dffrnq_1
*I *915:Z O *D gf180mcu_fd_sc_mcu7t5v0__dlyb_1
*CAP
1 *935:I 9.35573e-05
2 *936:I 0.000271179
3 *893:RN 0.000175176
4 *884:RN 0.000181464
5 *915:Z 2.5372e-05
6 *192:34 0.00057209
7 *192:12 0.000608524
8 *192:6 0.00048461
9 *893:RN *765:A2 0
10 *893:RN *201:21 0.000817527
11 *935:I *195:10 1.49279e-05
12 *936:I *762:A1 0
13 *936:I *765:A2 0
14 *936:I *195:10 5.2115e-05
15 *936:I *201:53 0
16 *192:6 *765:A2 1.60428e-05
17 *192:6 *201:21 1.23682e-05
18 *192:12 *765:A2 5.6593e-05
19 *192:12 *201:21 4.62012e-05
20 *192:12 *203:42 0
21 *753:A2 *884:RN 0
22 *753:A2 *935:I 0.000179963
23 *753:A2 *192:12 0
24 *753:A2 *192:34 0.00046282
25 *764:A2 *884:RN 9.00616e-05
26 *884:CLK *935:I 0
*RES
1 *915:Z *192:6 4.812 
2 *192:6 *192:12 6.58 
3 *192:12 *884:RN 10.56 
4 *192:12 *893:RN 11.184 
5 *192:6 *192:34 7.308 
6 *192:34 *936:I 10.56 
7 *192:34 *935:I 10.144 
*END

*D_NET *193 0.00461521
*CONN
*I *863:RN I *D gf180mcu_fd_sc_mcu7t5v0__dffrnq_1
*I *864:RN I *D gf180mcu_fd_sc_mcu7t5v0__dffrnq_1
*I *865:RN I *D gf180mcu_fd_sc_mcu7t5v0__dffrnq_1
*I *934:Z O *D gf180mcu_fd_sc_mcu7t5v0__clkbuf_2
*CAP
1 *863:RN 0.00021638
2 *864:RN 0.000561441
3 *865:RN 0.00077316
4 *934:Z 0.000428099
5 *863:RN *862:RN 2.11493e-05
6 *865:RN *882:RN 0
7 *761:A2 *864:RN 6.04145e-05
8 *761:A2 *865:RN 0.000924554
9 *762:A2 *865:RN 0.000346997
10 *763:A2 *865:RN 0.000278012
11 *781:A1 *863:RN 0.000265501
12 *781:A1 *864:RN 0.000285235
13 *782:B *863:RN 0.000159517
14 *784:A1 *864:RN 0
15 *784:A1 *865:RN 0
16 *784:A2 *863:RN 0
17 *784:A2 *864:RN 0
18 *948:I *863:RN 0.000271894
19 *949:I *864:RN 2.28589e-05
*RES
1 *934:Z *865:RN 13.992 
2 *865:RN *864:RN 11.808 
3 *864:RN *863:RN 11.808 
*END

*D_NET *194 0.00635143
*CONN
*I *874:RN I *D gf180mcu_fd_sc_mcu7t5v0__dffrnq_1
*I *875:RN I *D gf180mcu_fd_sc_mcu7t5v0__dffrnq_1
*I *885:RN I *D gf180mcu_fd_sc_mcu7t5v0__dffrnq_1
*I *935:Z O *D gf180mcu_fd_sc_mcu7t5v0__buf_2
*CAP
1 *874:RN 0
2 *875:RN 0.000322292
3 *885:RN 0.000937334
4 *935:Z 0.000750906
5 *194:26 0.000508719
6 *885:RN *763:A1 1.57479e-05
7 *761:A1 *885:RN 0.000297332
8 *763:A2 *885:RN 0.000173451
9 *783:A1 *875:RN 6.69436e-05
10 *783:A1 *885:RN 0
11 *783:A1 *194:26 9.52642e-05
12 *783:A2 *875:RN 0.000271894
13 *783:A2 *194:26 0.000276247
14 *785:A2 *885:RN 0.000151807
15 *815:A2 *885:RN 5.24641e-05
16 *830:B *875:RN 1.50534e-05
17 *881:D *885:RN 0.00065147
18 *882:D *885:RN 4.53894e-05
19 *883:D *885:RN 0
20 *883:CLK *885:RN 2.69674e-05
21 *884:D *885:RN 0.000653284
22 *77:8 *875:RN 1.19584e-05
23 *140:6 *885:RN 0.000337769
24 *140:39 *885:RN 0.000147623
25 *140:50 *885:RN 0.000541508
*RES
1 *935:Z *885:RN 27.776 
2 *885:RN *194:26 6.788 
3 *194:26 *875:RN 7.516 
4 *194:26 *874:RN 4.5 
*END

*D_NET *195 0.00362781
*CONN
*I *934:I I *D gf180mcu_fd_sc_mcu7t5v0__clkbuf_2
*I *882:RN I *D gf180mcu_fd_sc_mcu7t5v0__dffrnq_1
*I *881:RN I *D gf180mcu_fd_sc_mcu7t5v0__dffrnq_1
*I *936:Z O *D gf180mcu_fd_sc_mcu7t5v0__buf_2
*CAP
1 *934:I 0.000165807
2 *882:RN 0.000321183
3 *881:RN 0
4 *936:Z 0.00096534
5 *195:19 0.000644552
6 *195:10 0.0011229
7 *882:RN *953:I 1.07369e-05
8 *934:I *883:RN 7.11788e-06
9 *934:I *959:I 0
10 *195:10 *915:I 0
11 *195:10 *959:I 0
12 *195:19 *959:I 0
13 *753:A2 *195:10 0
14 *762:A2 *882:RN 0
15 *762:A2 *934:I 0
16 *762:A2 *195:10 0
17 *762:A2 *195:19 0
18 *865:RN *882:RN 0
19 *881:D *195:10 0.000100262
20 *884:CLK *195:10 5.469e-05
21 *935:I *195:10 1.49279e-05
22 *936:I *195:10 5.2115e-05
23 *140:50 *195:10 0.000168178
*RES
1 *936:Z *195:10 16.696 
2 *195:10 *881:RN 9 
3 *195:10 *195:19 1.352 
4 *195:19 *882:RN 11.184 
5 *195:19 *934:I 10.144 
*END

*D_NET *196 0.00407953
*CONN
*I *939:I I *D gf180mcu_fd_sc_mcu7t5v0__clkbuf_1
*I *880:RN I *D gf180mcu_fd_sc_mcu7t5v0__dffrnq_1
*I *892:RN I *D gf180mcu_fd_sc_mcu7t5v0__dffrnq_1
*I *916:Z O *D gf180mcu_fd_sc_mcu7t5v0__dlyb_1
*CAP
1 *939:I 0.000228876
2 *880:RN 0.00018583
3 *892:RN 0.000105128
4 *916:Z 0
5 *196:10 0.00074141
6 *196:4 0.000679328
7 *880:RN *756:A2 0
8 *939:I *914:I 0.000349456
9 *939:I *203:8 3.56133e-05
10 *753:A2 *880:RN 0.00019592
11 *753:A2 *196:10 2.60017e-05
12 *764:A2 *880:RN 0
13 *880:D *939:I 0.000121868
14 *880:D *196:10 0.000102557
15 *880:CLK *196:10 0.000159517
16 *176:38 *892:RN 9.09749e-05
17 *176:38 *196:10 0.000931135
18 *182:22 *939:I 1.40295e-05
19 *182:22 *196:10 0.000111888
*RES
1 *916:Z *196:4 4.5 
2 *196:4 *196:10 9.7 
3 *196:10 *892:RN 9.728 
4 *196:10 *880:RN 11.392 
5 *196:4 *939:I 6.996 
*END

*D_NET *197 0.00600417
*CONN
*I *873:RN I *D gf180mcu_fd_sc_mcu7t5v0__dffrnq_1
*I *872:RN I *D gf180mcu_fd_sc_mcu7t5v0__dffrnq_1
*I *889:RN I *D gf180mcu_fd_sc_mcu7t5v0__dffrnq_1
*I *937:Z O *D gf180mcu_fd_sc_mcu7t5v0__clkbuf_2
*CAP
1 *873:RN 0
2 *872:RN 0.000204076
3 *889:RN 0
4 *937:Z 0.000867568
5 *197:23 0.000761739
6 *197:10 0.00142523
7 *197:10 *937:I 6.18411e-06
8 *197:10 *216:10 0.000283521
9 *197:23 *216:10 0.000561163
10 *760:A1 *197:10 7.77726e-05
11 *774:A2 *872:RN 0.000228035
12 *810:A2 *197:23 8.59425e-06
13 *812:A1 *197:23 3.58572e-05
14 *812:A2 *872:RN 0
15 *813:A2 *197:23 0.000752343
16 *873:CLK *197:10 0
17 *875:CLK *872:RN 0.00041108
18 *875:CLK *197:23 0.000288127
19 *889:D *197:10 0
20 *145:17 *872:RN 0
21 *146:8 *872:RN 1.84122e-05
22 *146:8 *197:23 2.73715e-06
23 *182:22 *197:10 7.17269e-05
*RES
1 *937:Z *197:10 15.448 
2 *197:10 *889:RN 9 
3 *197:10 *197:23 10.532 
4 *197:23 *872:RN 7.308 
5 *197:23 *873:RN 4.5 
*END

*D_NET *198 0.00285972
*CONN
*I *937:I I *D gf180mcu_fd_sc_mcu7t5v0__clkbuf_2
*I *886:RN I *D gf180mcu_fd_sc_mcu7t5v0__dffrnq_1
*I *888:RN I *D gf180mcu_fd_sc_mcu7t5v0__dffrnq_1
*I *887:RN I *D gf180mcu_fd_sc_mcu7t5v0__dffrnq_1
*I *938:Z O *D gf180mcu_fd_sc_mcu7t5v0__clkbuf_2
*CAP
1 *937:I 0.000268251
2 *886:RN 0.000224514
3 *888:RN 0.000499265
4 *887:RN 0.00022422
5 *938:Z 0
6 *198:6 0.000603838
7 *198:4 0.000373118
8 *886:RN *890:RN 4.67771e-06
9 *886:RN *891:RN 3.4596e-05
10 *886:RN *938:I 5.33617e-05
11 *887:RN *759:A2 4.07478e-05
12 *888:RN *758:A2 0
13 *937:I *760:A2 0
14 *198:6 *938:I 1.85523e-05
15 *177:47 *886:RN 2.11475e-05
16 *177:47 *198:6 4.4504e-06
17 *177:66 *887:RN 0.000340424
18 *177:66 *198:6 0.000142373
19 *197:10 *937:I 6.18411e-06
*RES
1 *938:Z *198:4 4.5 
2 *198:4 *198:6 1.352 
3 *198:6 *887:RN 6.996 
4 *198:6 *888:RN 15.476 
5 *198:4 *886:RN 6.06 
6 *888:RN *937:I 10.976 
*END

*D_NET *199 0.00370721
*CONN
*I *938:I I *D gf180mcu_fd_sc_mcu7t5v0__clkbuf_2
*I *891:RN I *D gf180mcu_fd_sc_mcu7t5v0__dffrnq_1
*I *890:RN I *D gf180mcu_fd_sc_mcu7t5v0__dffrnq_1
*I *939:Z O *D gf180mcu_fd_sc_mcu7t5v0__clkbuf_1
*CAP
1 *938:I 0.000233752
2 *891:RN 0.000446164
3 *890:RN 0.000172404
4 *939:Z 0.00023254
5 *199:10 0.000695855
6 *199:8 0.000543578
7 *890:RN *754:A2 0
8 *891:RN *755:A2 2.73715e-06
9 *938:I *758:A2 9.09864e-05
10 *199:8 *916:I 9.8198e-05
11 *199:8 *203:19 4.27073e-05
12 *199:10 *754:A2 0
13 *886:RN *890:RN 4.67771e-06
14 *886:RN *891:RN 3.4596e-05
15 *886:RN *938:I 5.33617e-05
16 *907:I *938:I 0
17 *3:12 *890:RN 0.000152316
18 *3:12 *199:8 0.000666301
19 *3:12 *199:10 0.000137017
20 *138:32 *891:RN 0
21 *177:47 *890:RN 8.14679e-05
22 *177:47 *891:RN 0
23 *198:6 *938:I 1.85523e-05
*RES
1 *939:Z *199:8 13.056 
2 *199:8 *199:10 0.936 
3 *199:10 *890:RN 10.872 
4 *199:10 *891:RN 12.224 
5 *199:8 *938:I 10.768 
*END

*D_NET *200 0.0034985
*CONN
*I *960:I I *D gf180mcu_fd_sc_mcu7t5v0__buf_1
*I *917:Z O *D gf180mcu_fd_sc_mcu7t5v0__dlyb_1
*CAP
1 *960:I 0.00049112
2 *917:Z 0.00049112
3 *960:I *755:A2 0.000438819
4 *753:A2 *960:I 0.00110699
5 *892:D *960:I 9.41125e-05
6 *138:32 *960:I 0
7 *176:14 *960:I 6.99789e-05
8 *176:38 *960:I 0.000209937
9 *182:22 *960:I 0.000596423
*RES
1 *917:Z *960:I 25.072 
*END

*D_NET *201 0.0159815
*CONN
*I *765:A1 I *D gf180mcu_fd_sc_mcu7t5v0__and2_1
*I *762:A1 I *D gf180mcu_fd_sc_mcu7t5v0__and2_1
*I *763:A1 I *D gf180mcu_fd_sc_mcu7t5v0__and2_1
*I *764:A1 I *D gf180mcu_fd_sc_mcu7t5v0__and2_1
*I *912:I I *D gf180mcu_fd_sc_mcu7t5v0__dlyb_1
*I *922:Z O *D gf180mcu_fd_sc_mcu7t5v0__buf_1
*CAP
1 *765:A1 0
2 *762:A1 0.000783843
3 *763:A1 0.000766488
4 *764:A1 7.52731e-05
5 *912:I 0
6 *922:Z 0.000249893
7 *201:53 0.000999204
8 *201:21 0.00140383
9 *201:17 0.00193817
10 *201:8 0.00141063
11 *763:A1 *959:I 2.19312e-06
12 *764:A1 *211:26 2.42026e-05
13 *201:21 *765:A2 0
14 *201:21 *954:I 9.41125e-05
15 *201:21 *211:26 2.81522e-06
16 *753:A2 *762:A1 0.000157853
17 *753:A2 *201:17 0.000223392
18 *753:A2 *201:53 4.70047e-05
19 *757:A2 *201:8 0.00121107
20 *757:A2 *201:17 0.00187694
21 *762:A2 *762:A1 0.000208806
22 *763:A2 *763:A1 0.000189683
23 *764:A2 *764:A1 0.000194522
24 *764:A2 *201:21 0.000741666
25 *785:A2 *763:A1 0
26 *815:A1 *764:A1 0
27 *815:A2 *763:A1 0
28 *881:D *762:A1 0.00109524
29 *882:D *763:A1 0.000500761
30 *885:RN *763:A1 1.57479e-05
31 *893:RN *201:21 0.000817527
32 *911:I *201:8 0.000137027
33 *936:I *762:A1 0
34 *936:I *201:53 0
35 *132:123 *763:A1 0.000216423
36 *140:10 *763:A1 0.00026538
37 *140:16 *763:A1 0.000226771
38 *177:18 *201:8 4.64872e-05
39 *192:6 *201:21 1.23682e-05
40 *192:12 *201:21 4.62012e-05
*RES
1 *922:Z *201:8 13.264 
2 *201:8 *912:I 9 
3 *201:8 *201:17 12.376 
4 *201:17 *201:21 10.22 
5 *201:21 *764:A1 5.332 
6 *201:21 *763:A1 22.028 
7 *201:17 *201:53 6.58 
8 *201:53 *762:A1 21.612 
9 *201:53 *765:A1 4.5 
*END

*D_NET *202 0.00926114
*CONN
*I *861:RN I *D gf180mcu_fd_sc_mcu7t5v0__dffrnq_1
*I *883:RN I *D gf180mcu_fd_sc_mcu7t5v0__dffrnq_1
*I *862:RN I *D gf180mcu_fd_sc_mcu7t5v0__dffrnq_1
*I *959:Z O *D gf180mcu_fd_sc_mcu7t5v0__clkbuf_2
*CAP
1 *861:RN 0.00077265
2 *883:RN 0.000741892
3 *862:RN 0.00204077
4 *959:Z 0
5 *202:4 0.00201001
6 *883:RN *953:I 5.61634e-05
7 votes_in_phase[3] *861:RN 1.43055e-05
8 votes_out_phase[0] *862:RN 4.21219e-05
9 votes_out_phase[1] *862:RN 0.00026796
10 votes_out_phase[2] *862:RN 0.000122244
11 votes_out_phase[3] *883:RN 0.000212654
12 *762:A2 *883:RN 9.87996e-05
13 *781:A1 *862:RN 0
14 *851:A2 *861:RN 0
15 *863:RN *862:RN 2.11493e-05
16 *918:I *883:RN 3.4596e-05
17 *934:I *883:RN 7.11788e-06
18 *947:I *861:RN 3.4596e-05
19 *947:I *862:RN 0.000745259
20 *948:I *862:RN 0.000127173
21 *949:I *862:RN 0.000437795
22 *950:I *862:RN 0.000970012
23 *950:I *883:RN 0.000241565
24 *164:10 *861:RN 0
25 *174:55 *861:RN 0.0002623
*RES
1 *959:Z *202:4 4.5 
2 *202:4 *862:RN 17.5 
3 *202:4 *883:RN 19.948 
4 *862:RN *861:RN 14.72 
*END

*D_NET *203 0.0166395
*CONN
*I *959:I I *D gf180mcu_fd_sc_mcu7t5v0__clkbuf_2
*I *915:I I *D gf180mcu_fd_sc_mcu7t5v0__dlyb_1
*I *914:I I *D gf180mcu_fd_sc_mcu7t5v0__dlyb_1
*I *916:I I *D gf180mcu_fd_sc_mcu7t5v0__dlyb_1
*I *960:Z O *D gf180mcu_fd_sc_mcu7t5v0__buf_1
*CAP
1 *959:I 0.000808275
2 *915:I 0.000343828
3 *914:I 0.00150897
4 *916:I 0.000166859
5 *960:Z 8.00478e-05
6 *203:42 0.00200936
7 *203:19 0.00251594
8 *203:8 0.000396624
9 *914:I *752:A1 0.000232616
10 *914:I *216:14 0.000226168
11 *915:I *765:A2 0.000145853
12 *203:42 *756:A2 2.81613e-05
13 *763:A1 *959:I 2.19312e-06
14 *763:A2 *959:I 0.00105883
15 *764:A2 *203:42 7.69918e-05
16 *810:A1 *914:I 4.09981e-05
17 *810:A2 *914:I 9.28617e-05
18 *872:D *914:I 0.000155331
19 *873:D *914:I 0.000159517
20 *880:D *914:I 0.00127564
21 *880:CLK *916:I 0
22 *884:D *915:I 8.5094e-05
23 *884:CLK *959:I 0
24 *889:D *914:I 0.000170473
25 *934:I *959:I 0
26 *939:I *914:I 0.000349456
27 *939:I *203:8 3.56133e-05
28 *3:12 *203:19 0
29 *3:12 *203:42 0
30 *3:22 *914:I 0.000844518
31 *140:10 *959:I 0.00113699
32 *140:10 *203:42 0.00037585
33 *140:16 *203:42 0.00173991
34 *140:50 *959:I 0
35 *182:22 *914:I 9.78641e-05
36 *182:22 *203:8 0.000337769
37 *192:12 *203:42 0
38 *195:10 *915:I 0
39 *195:10 *959:I 0
40 *195:19 *959:I 0
41 *199:8 *916:I 9.8198e-05
42 *199:8 *203:19 4.27073e-05
*RES
1 *960:Z *203:8 9.936 
2 *203:8 *916:I 10.56 
3 *203:8 *203:19 1.352 
4 *203:19 *914:I 26.368 
5 *203:19 *203:42 9.256 
6 *203:42 *915:I 12.016 
7 *203:42 *959:I 19.088 
*END

*D_NET *204 0.00296238
*CONN
*I *750:I I *D gf180mcu_fd_sc_mcu7t5v0__clkinv_1
*I *951:I I *D gf180mcu_fd_sc_mcu7t5v0__buf_2
*I *853:Q O *D gf180mcu_fd_sc_mcu7t5v0__dffrnq_1
*CAP
1 *750:I 0.000256072
2 *951:I 3.02168e-05
3 *853:Q 0.00033595
4 *204:12 0.000622239
5 *838:A2 *750:I 0.000542895
6 *838:A3 *951:I 0.000113016
7 *838:A3 *204:12 0.000328552
8 *184:8 *750:I 6.77538e-05
9 *184:8 *204:12 0.000392237
10 *184:10 *204:12 0.00027345
*RES
1 *853:Q *204:12 18.284 
2 *204:12 *951:I 4.812 
3 *204:12 *750:I 16.1 
*END

*D_NET *205 0.00387556
*CONN
*I *952:I I *D gf180mcu_fd_sc_mcu7t5v0__buf_2
*I *836:A1 I *D gf180mcu_fd_sc_mcu7t5v0__nor2_1
*I *855:Q O *D gf180mcu_fd_sc_mcu7t5v0__dffrnq_1
*CAP
1 *952:I 0
2 *836:A1 0.000214799
3 *855:Q 0.00124415
4 *205:12 0.00145895
5 *837:A2 *205:12 0
6 *837:A3 *836:A1 5.13977e-05
7 *837:A3 *205:12 0
8 *838:A2 *836:A1 0.000333303
9 *842:A1 *205:12 0
10 *842:B *205:12 0.000102068
11 *856:RN *205:12 1.53953e-05
12 *942:I *205:12 0.000140475
13 *170:25 *205:12 0.00031503
*RES
1 *855:Q *205:12 21.82 
2 *205:12 *836:A1 6.476 
3 *205:12 *952:I 4.5 
*END

*D_NET *206 0.000931337
*CONN
*I *953:I I *D gf180mcu_fd_sc_mcu7t5v0__buf_2
*I *881:Q O *D gf180mcu_fd_sc_mcu7t5v0__dffrnq_1
*CAP
1 *953:I 0.000402785
2 *881:Q 0.000402785
3 *762:A2 *953:I 5.88662e-05
4 *882:RN *953:I 1.07369e-05
5 *883:RN *953:I 5.61634e-05
*RES
1 *881:Q *953:I 11.912 
*END

*D_NET *207 0.000517337
*CONN
*I *954:I I *D gf180mcu_fd_sc_mcu7t5v0__buf_2
*I *880:Q O *D gf180mcu_fd_sc_mcu7t5v0__dffrnq_1
*CAP
1 *954:I 0.000211612
2 *880:Q 0.000211612
3 *201:21 *954:I 9.41125e-05
*RES
1 *880:Q *954:I 10.664 
*END

*D_NET *208 0.00221699
*CONN
*I *754:A2 I *D gf180mcu_fd_sc_mcu7t5v0__and2_1
*I *890:Q O *D gf180mcu_fd_sc_mcu7t5v0__dffrnq_1
*CAP
1 *754:A2 0.000885595
2 *890:Q 0.000885595
3 *890:RN *754:A2 0
4 *890:CLK *754:A2 9.59861e-05
5 *891:D *754:A2 5.39368e-06
6 *3:12 *754:A2 0
7 *138:43 *754:A2 0.000344419
8 *199:10 *754:A2 0
*RES
1 *890:Q *754:A2 26.112 
*END

*D_NET *209 0.00137231
*CONN
*I *755:A2 I *D gf180mcu_fd_sc_mcu7t5v0__and2_1
*I *891:Q O *D gf180mcu_fd_sc_mcu7t5v0__dffrnq_1
*CAP
1 *755:A2 0.000221011
2 *891:Q 0.000221011
3 *891:RN *755:A2 2.73715e-06
4 *892:D *755:A2 0
5 *960:I *755:A2 0.000438819
6 *176:14 *755:A2 0.000274703
7 *176:18 *755:A2 1.40331e-05
8 *176:38 *755:A2 0.000199998
*RES
1 *891:Q *755:A2 20.288 
*END

*D_NET *210 0.0012929
*CONN
*I *756:A2 I *D gf180mcu_fd_sc_mcu7t5v0__and2_1
*I *892:Q O *D gf180mcu_fd_sc_mcu7t5v0__dffrnq_1
*CAP
1 *756:A2 0.000365803
2 *892:Q 0.000365803
3 *880:RN *756:A2 0
4 *893:D *756:A2 0.000156319
5 *140:16 *756:A2 0
6 *176:38 *756:A2 0.000376815
7 *203:42 *756:A2 2.81613e-05
*RES
1 *892:Q *756:A2 21.744 
*END

*D_NET *211 0.0126221
*CONN
*I *765:A2 I *D gf180mcu_fd_sc_mcu7t5v0__and2_1
*I *767:A2 I *D gf180mcu_fd_sc_mcu7t5v0__nand2_2
*I *766:A2 I *D gf180mcu_fd_sc_mcu7t5v0__and2_1
*I *893:Q O *D gf180mcu_fd_sc_mcu7t5v0__dffrnq_1
*CAP
1 *765:A2 0.000698618
2 *767:A2 0
3 *766:A2 0.00101063
4 *893:Q 0
5 *211:26 0.00313786
6 *211:4 0.00282585
7 *211:26 *775:A2 2.38773e-05
8 *764:A1 *211:26 2.42026e-05
9 *774:A2 *211:26 0
10 *775:A4 *211:26 0.000220496
11 *776:A1 *211:26 2.46717e-05
12 *776:A2 *211:26 0.000122244
13 *783:A2 *211:26 0.000322231
14 *787:A1 *766:A2 0
15 *809:A2 *211:26 0.00112993
16 *814:A1 *211:26 0.000582267
17 *815:A1 *211:26 0.000224734
18 *830:A1 *211:26 7.84634e-05
19 *830:C *211:26 0
20 *850:A2 *211:26 8.14679e-05
21 *874:D *211:26 8.58959e-05
22 *875:D *211:26 0.000324521
23 *885:D *211:26 0
24 *893:RN *765:A2 0
25 *901:I *211:26 1.50543e-05
26 *915:I *765:A2 0.000145853
27 *936:I *765:A2 0
28 *66:12 *211:26 0.000194606
29 *66:14 *211:26 4.67771e-06
30 *74:18 *211:26 0
31 *113:26 *211:26 0
32 *132:123 *211:26 0
33 *132:155 *211:26 4.52738e-05
34 *132:160 *211:26 7.3167e-05
35 *175:27 *766:A2 0.000169167
36 *175:63 *211:26 0.000195812
37 *187:16 *211:26 9.67894e-05
38 *191:12 *766:A2 0.000688298
39 *192:6 *765:A2 1.60428e-05
40 *192:12 *765:A2 5.6593e-05
41 *201:21 *765:A2 0
42 *201:21 *211:26 2.81522e-06
*RES
1 *893:Q *211:4 4.5 
2 *211:4 *211:26 25.716 
3 *211:26 *766:A2 26.112 
4 *211:26 *767:A2 9 
5 *211:4 *765:A2 9.596 
*END

*D_NET *212 0.00982374
*CONN
*I *793:A2 I *D gf180mcu_fd_sc_mcu7t5v0__nand4_1
*I *787:A2 I *D gf180mcu_fd_sc_mcu7t5v0__nand2_1
*I *792:A2 I *D gf180mcu_fd_sc_mcu7t5v0__nand3_1
*I *775:A2 I *D gf180mcu_fd_sc_mcu7t5v0__nor4_4
*I *772:A2 I *D gf180mcu_fd_sc_mcu7t5v0__nor3_2
*I *747:I I *D gf180mcu_fd_sc_mcu7t5v0__clkinv_1
*I *866:Q O *D gf180mcu_fd_sc_mcu7t5v0__dffrnq_1
*CAP
1 *793:A2 0.000334837
2 *787:A2 0.000256591
3 *792:A2 0.000158463
4 *775:A2 0.000428422
5 *772:A2 0
6 *747:I 0
7 *866:Q 0
8 *212:54 0.000591428
9 *212:43 0.000463882
10 *212:19 0.000642068
11 *212:12 0.000724737
12 *212:4 0.000816511
13 *773:A3 *212:19 0.00108689
14 *777:A2 *775:A2 1.07369e-05
15 *797:A1 *787:A2 6.85626e-05
16 *797:A1 *792:A2 4.54704e-05
17 *797:A1 *793:A2 0.000135342
18 *797:A1 *212:43 6.24255e-05
19 *797:A2 *787:A2 7.43413e-05
20 *797:A2 *793:A2 9.54562e-05
21 *798:A3 *212:19 6.88149e-05
22 *798:A4 *793:A2 2.19887e-05
23 *798:A4 *212:12 0
24 *800:A2 *793:A2 2.37385e-05
25 *805:A2 *775:A2 0.000427051
26 *807:A1 *775:A2 2.60017e-05
27 *829:B *212:12 0.000107912
28 *840:A2 *787:A2 4.95518e-05
29 *866:RN *212:43 0.000154193
30 *870:D *775:A2 0.000548119
31 *932:I *212:12 4.55288e-05
32 *65:14 *787:A2 6.51159e-05
33 *65:14 *792:A2 0
34 *65:14 *212:43 0
35 *65:20 *787:A2 5.47783e-05
36 *65:40 *787:A2 6.36074e-05
37 *66:14 *775:A2 1.70957e-06
38 *66:32 *787:A2 7.47302e-05
39 *66:32 *212:43 9.37193e-05
40 *94:12 *792:A2 0.000117685
41 *94:12 *212:43 7.02954e-05
42 *112:18 *793:A2 0.000320012
43 *113:26 *775:A2 0.000249015
44 *113:26 *212:12 0
45 *113:26 *212:19 0.000166571
46 *113:26 *212:43 7.56248e-06
47 *126:20 *775:A2 0.000613615
48 *126:28 *793:A2 4.07927e-05
49 *126:28 *212:12 1.23682e-05
50 *126:28 *212:19 6.18411e-06
51 *132:78 *212:12 2.68371e-05
52 *132:78 *212:19 2.61227e-05
53 *141:10 *793:A2 3.4596e-05
54 *141:19 *793:A2 2.14739e-05
55 *141:36 *793:A2 4.38131e-05
56 *142:16 *212:12 0.000204659
57 *152:22 *775:A2 9.35542e-06
58 *187:27 *212:43 6.18411e-06
59 *211:26 *775:A2 2.38773e-05
*RES
1 *866:Q *212:4 4.5 
2 *212:4 *212:12 12.744 
3 *212:12 *747:I 4.5 
4 *212:12 *212:19 3.224 
5 *212:19 *772:A2 4.5 
6 *212:19 *775:A2 19.636 
7 *212:4 *212:43 2.912 
8 *212:43 *792:A2 5.748 
9 *212:43 *212:54 4.5 
10 *212:54 *787:A2 11.912 
11 *212:54 *793:A2 12.12 
*END

*D_NET *213 0.00158173
*CONN
*I *758:A2 I *D gf180mcu_fd_sc_mcu7t5v0__and2_1
*I *886:Q O *D gf180mcu_fd_sc_mcu7t5v0__dffrnq_1
*CAP
1 *758:A2 0.000407138
2 *886:Q 0.000407138
3 *758:A1 *758:A2 0.000179942
4 *888:RN *758:A2 0
5 *907:I *758:A2 2.32529e-05
6 *938:I *758:A2 9.09864e-05
7 *3:12 *758:A2 0.000326841
8 *137:14 *758:A2 0
9 *177:66 *758:A2 0.000146434
*RES
1 *886:Q *758:A2 22.992 
*END

*D_NET *214 0.00167392
*CONN
*I *759:A2 I *D gf180mcu_fd_sc_mcu7t5v0__and2_1
*I *887:Q O *D gf180mcu_fd_sc_mcu7t5v0__dffrnq_1
*CAP
1 *759:A2 0.000415802
2 *887:Q 0.000415802
3 *759:A1 *759:A2 0.000661886
4 *887:RN *759:A2 4.07478e-05
5 *888:D *759:A2 5.60123e-05
6 *137:10 *759:A2 2.30545e-05
7 *177:66 *759:A2 6.062e-05
*RES
1 *887:Q *759:A2 13.576 
*END

*D_NET *215 0.000677321
*CONN
*I *760:A2 I *D gf180mcu_fd_sc_mcu7t5v0__and2_1
*I *888:Q O *D gf180mcu_fd_sc_mcu7t5v0__dffrnq_1
*CAP
1 *760:A2 0.00020591
2 *888:Q 0.00020591
3 *937:I *760:A2 0
4 *182:22 *760:A2 0.000265501
*RES
1 *888:Q *760:A2 10.872 
*END

*D_NET *216 0.0116998
*CONN
*I *752:A1 I *D gf180mcu_fd_sc_mcu7t5v0__and2_1
*I *790:A1 I *D gf180mcu_fd_sc_mcu7t5v0__nor2_1
*I *786:A1 I *D gf180mcu_fd_sc_mcu7t5v0__nand3_1
*I *788:A1 I *D gf180mcu_fd_sc_mcu7t5v0__oai21_1
*I *889:Q O *D gf180mcu_fd_sc_mcu7t5v0__dffrnq_1
*CAP
1 *752:A1 0.000259911
2 *790:A1 0
3 *786:A1 0
4 *788:A1 9.09977e-05
5 *889:Q 0.000175405
6 *216:20 0.000480327
7 *216:14 0.000782484
8 *216:10 0.000828471
9 *216:14 *790:A2 4.41346e-05
10 *216:14 *217:8 0
11 *216:20 *217:8 0
12 *786:A3 *216:20 1.57479e-05
13 *791:A2 *216:14 0.000162991
14 *791:A2 *216:20 0.000710926
15 *810:A2 *216:10 4.9065e-05
16 *866:D *788:A1 0.000201707
17 *867:RN *216:20 0.000180746
18 *872:D *216:14 0.000169099
19 *873:D *216:14 0.000428493
20 *889:D *752:A1 0.000729296
21 *894:I *216:14 0
22 *914:I *752:A1 0.000232616
23 *914:I *216:14 0.000226168
24 *3:22 *216:14 0
25 *182:22 *752:A1 0.002051
26 *182:22 *216:14 0.00261247
27 *182:22 *216:20 0.000134354
28 *182:30 *788:A1 0.000274703
29 *182:30 *216:20 1.40331e-05
30 *197:10 *216:10 0.000283521
31 *197:23 *216:10 0.000561163
*RES
1 *889:Q *216:10 15.684 
2 *216:10 *216:14 7.904 
3 *216:14 *216:20 4.472 
4 *216:20 *788:A1 14.852 
5 *216:20 *786:A1 4.5 
6 *216:14 *790:A1 4.5 
7 *216:10 *752:A1 10.22 
*END

*D_NET *217 0.0050651
*CONN
*I *767:A1 I *D gf180mcu_fd_sc_mcu7t5v0__nand2_2
*I *766:A1 I *D gf180mcu_fd_sc_mcu7t5v0__and2_1
*I *790:A2 I *D gf180mcu_fd_sc_mcu7t5v0__nor2_1
*I *867:Q O *D gf180mcu_fd_sc_mcu7t5v0__dffrnq_1
*CAP
1 *767:A1 0.000352166
2 *766:A1 0.000620359
3 *790:A2 0.000269525
4 *867:Q 0.000156476
5 *217:21 0.00112579
6 *217:8 0.000579263
7 *773:A2 *767:A1 3.46149e-05
8 *773:A3 *767:A1 0
9 *773:A4 *766:A1 0
10 *788:A2 *766:A1 2.73715e-06
11 *867:RN *766:A1 0
12 *867:RN *217:8 2.73715e-06
13 *875:CLK *767:A1 2.43345e-05
14 *875:CLK *217:21 4.42519e-05
15 *894:I *790:A2 4.10573e-06
16 *894:I *217:8 0.000104542
17 *896:I *766:A1 0.00011486
18 *65:14 *766:A1 1.0603e-05
19 *132:8 *767:A1 9.95226e-05
20 *132:17 *766:A1 0.000405116
21 *132:33 *767:A1 0
22 *134:12 *767:A1 0
23 *134:12 *217:21 0
24 *134:21 *766:A1 0.00014798
25 *134:21 *217:8 0.000256508
26 *134:25 *790:A2 0.000145442
27 *134:25 *217:21 3.80112e-05
28 *187:16 *767:A1 0.000469679
29 *187:16 *217:21 1.23478e-05
30 *216:14 *790:A2 4.41346e-05
31 *216:14 *217:8 0
32 *216:20 *217:8 0
*RES
1 *867:Q *217:8 10.768 
2 *217:8 *790:A2 11.08 
3 *217:8 *217:21 1.144 
4 *217:21 *766:A1 14.616 
5 *217:21 *767:A1 12.328 
*END
