*SPEF "ieee 1481-1999"
*DESIGN "state_machine"
*DATE "23:46:21 Sunday August 09, 2026"
*VENDOR "The OpenROAD Project"
*PROGRAM "OpenROAD"
*VERSION "26Q1-1024-gdcf36133a"
*DESIGN_FLOW "NAME_SCOPE LOCAL" "PIN_CAP NONE"
*DIVIDER /
*DELIMITER :
*BUS_DELIMITER []
*T_UNIT 1 NS
*C_UNIT 1 PF
*R_UNIT 1 OHM
*L_UNIT 1 HENRY

*NAME_MAP
*3 boot_complete
*4 cal_done
*5 cal_start
*6 cal_timeout
*7 cfg_done
*8 clk
*9 phase_offset_imported
*10 read_en
*11 rst_n
*12 soft_rst
*13 state_o[0]
*14 state_o[1]
*15 state_o[2]
*16 _00_
*17 _01_
*18 _02_
*19 _03_
*20 _04_
*21 _05_
*22 _06_
*23 _07_
*24 _08_
*25 _09_
*26 _10_
*27 _11_
*28 _12_
*29 _13_
*30 _14_
*31 _15_
*32 _16_
*33 _17_
*34 clknet_0_clk
*35 clknet_1_0__leaf_clk
*36 clknet_1_1__leaf_clk
*37 net1
*38 net10
*39 net11
*40 net12
*41 net13
*42 net2
*43 net3
*44 net4
*45 net5
*46 net6
*47 net7
*48 net8
*49 net9
*50 FILLER_0_36
*51 FILLER_0_67
*52 FILLER_0_8
*53 FILLER_1_10
*54 FILLER_1_2
*55 FILLER_1_72
*56 FILLER_2_10
*57 FILLER_2_14
*58 FILLER_2_2
*59 FILLER_2_21
*60 FILLER_2_37
*61 FILLER_2_39
*62 FILLER_3_10
*63 FILLER_3_14
*64 FILLER_3_2
*65 FILLER_3_49
*66 FILLER_3_51
*67 FILLER_3_68
*68 FILLER_3_72
*69 FILLER_4_2
*70 FILLER_4_6
*71 FILLER_4_71
*72 FILLER_4_73
*73 FILLER_5_10
*74 FILLER_5_14
*75 FILLER_5_2
*76 FILLER_5_72
*77 FILLER_6_10
*78 FILLER_6_14
*79 FILLER_6_16
*80 FILLER_6_2
*81 FILLER_6_71
*82 FILLER_6_73
*83 FILLER_7_18
*84 FILLER_7_2
*85 FILLER_7_72
*86 FILLER_8_18
*87 FILLER_8_2
*88 FILLER_8_26
*89 FILLER_8_28
*90 FILLER_8_47
*91 FILLER_8_49
*92 FILLER_9_2
*93 FILLER_9_50
*94 FILLER_9_70
*95 PHY_EDGE_ROW_0_Left_10
*96 PHY_EDGE_ROW_0_Right_0
*97 PHY_EDGE_ROW_1_Left_11
*98 PHY_EDGE_ROW_1_Right_1
*99 PHY_EDGE_ROW_2_Left_12
*100 PHY_EDGE_ROW_2_Right_2
*101 PHY_EDGE_ROW_3_Left_13
*102 PHY_EDGE_ROW_3_Right_3
*103 PHY_EDGE_ROW_4_Left_14
*104 PHY_EDGE_ROW_4_Right_4
*105 PHY_EDGE_ROW_5_Left_15
*106 PHY_EDGE_ROW_5_Right_5
*107 PHY_EDGE_ROW_6_Left_16
*108 PHY_EDGE_ROW_6_Right_6
*109 PHY_EDGE_ROW_7_Left_17
*110 PHY_EDGE_ROW_7_Right_7
*111 PHY_EDGE_ROW_8_Left_18
*112 PHY_EDGE_ROW_8_Right_8
*113 PHY_EDGE_ROW_9_Left_19
*114 PHY_EDGE_ROW_9_Right_9
*115 TAP_TAPCELL_ROW_0_20
*116 TAP_TAPCELL_ROW_0_21
*117 TAP_TAPCELL_ROW_1_22
*118 TAP_TAPCELL_ROW_2_23
*119 TAP_TAPCELL_ROW_3_24
*120 TAP_TAPCELL_ROW_4_25
*121 TAP_TAPCELL_ROW_5_26
*122 TAP_TAPCELL_ROW_6_27
*123 TAP_TAPCELL_ROW_7_28
*124 TAP_TAPCELL_ROW_8_29
*125 TAP_TAPCELL_ROW_9_30
*126 TAP_TAPCELL_ROW_9_31
*127 _18_
*128 _19_
*129 _20_
*130 _21_
*131 _22_
*132 _23_
*133 _24_
*134 _25_
*135 _26_
*136 _27_
*137 _28_
*138 _29_
*139 _30_
*140 _31_
*141 _32_
*142 _33_
*143 _34_
*144 _35_
*145 _36_
*146 _37_
*147 _38_
*148 _39_
*149 _40_
*150 clkbuf_0_clk
*151 clkbuf_1_0__f_clk
*152 clkbuf_1_1__f_clk
*153 clkload0
*154 input1
*155 input2
*156 input3
*157 input4
*158 input5
*159 input6
*160 input7
*161 load_slew13
*162 output10
*163 output11
*164 output12
*165 output8
*166 output9

*PORTS
boot_complete I
cal_done I
cal_start O
cal_timeout I
cfg_done I
clk I
phase_offset_imported I
read_en O
rst_n I
soft_rst I
state_o[0] O
state_o[1] O
state_o[2] O

*D_NET *3 0.00417778
*CONN
*P boot_complete I
*I *154:I I *D gf180mcu_fd_sc_mcu7t5v0__buf_1
*CAP
1 boot_complete 0.00195967
2 *154:I 0.00195967
3 *154:I *138:A2 0.000101335
4 *154:I *38:38 0.000157106
*RES
1 boot_complete *154:I 33.9125 
*END

*D_NET *4 0.00165809
*CONN
*P cal_done I
*I *155:I I *D gf180mcu_fd_sc_mcu7t5v0__buf_1
*CAP
1 cal_done 0.000829044
2 *155:I 0.000829044
3 *155:I *156:I 0
*RES
1 cal_done *155:I 19.485 
*END

*D_NET *5 0.00680985
*CONN
*P cal_start O
*I *165:Z O *D gf180mcu_fd_sc_mcu7t5v0__buf_2
*CAP
1 cal_start 0.00150247
2 *165:Z 0.00150247
3 cal_start read_en 6.39593e-05
4 cal_start *129:I 0.000563812
5 cal_start *133:A2 0.000984883
6 cal_start *134:A1 3.22122e-05
7 cal_start *136:B 0.000479076
8 cal_start *138:B2 1.98047e-05
9 cal_start *159:I 0.000149218
10 cal_start *165:I 1.56779e-05
11 cal_start *166:I 0.000144342
12 cal_start *23:10 0.000721631
13 cal_start *23:14 0.000630288
*RES
1 *165:Z cal_start 30.285 
*END

*D_NET *6 0.00201517
*CONN
*P cal_timeout I
*I *156:I I *D gf180mcu_fd_sc_mcu7t5v0__buf_1
*CAP
1 cal_timeout 0.00100759
2 *156:I 0.00100759
3 *155:I *156:I 0
*RES
1 cal_timeout *156:I 20.925 
*END

*D_NET *7 0.0046811
*CONN
*P cfg_done I
*I *157:I I *D gf180mcu_fd_sc_mcu7t5v0__buf_1
*CAP
1 cfg_done 0.00128525
2 *157:I 0.00128525
3 *157:I *129:I 3.98088e-05
4 *157:I *130:A2 1.06549e-05
5 *157:I *131:A1 8.74174e-05
6 *157:I *132:A2 0.000428239
7 *157:I *135:A1 5.41407e-05
8 *157:I *143:A1 0
9 *157:I *148:RN 0.000425559
10 *157:I *20:12 8.88954e-06
11 *157:I *38:38 0.000680738
12 *157:I *39:10 0
13 *157:I *39:29 0.000375166
*RES
1 cfg_done *157:I 21.195 
*END

*D_NET *8 0.00528504
*CONN
*P clk I
*I *150:I I *D gf180mcu_fd_sc_mcu7t5v0__clkbuf_16
*CAP
1 clk 0.00202174
2 *150:I 5.89509e-05
3 *8:18 0.00208069
4 *150:I *146:A1 2.31656e-05
5 *150:I *40:68 9.1886e-05
6 *8:18 read_en 0
7 *8:18 *133:A1 0.000323065
8 *8:18 *137:A1 0.000335268
9 *8:18 *138:A2 9.27022e-05
10 *8:18 *138:B2 2.06876e-05
11 *8:18 *146:A1 3.14593e-05
12 *8:18 *148:RN 2.00277e-05
13 *8:18 *149:RN 1.60909e-05
14 *8:18 *162:I 0
15 *8:18 *27:12 0
16 *8:18 *40:20 5.33434e-05
17 *8:18 *40:68 0.000115967
*RES
1 clk *8:18 20.4718 
2 *8:18 *150:I 5.13321 
*END

*D_NET *9 0.00438196
*CONN
*P phase_offset_imported I
*I *158:I I *D gf180mcu_fd_sc_mcu7t5v0__buf_1
*CAP
1 phase_offset_imported 0.00197538
2 *158:I 0.00197538
3 *158:I *139:B 4.66823e-05
4 *158:I *140:A2 1.73891e-06
5 *158:I *142:A1 3.87145e-05
6 *158:I *142:A2 0
7 *158:I *148:CLK 6.00973e-05
8 *158:I *161:I 4.17878e-05
9 *158:I *20:12 0
10 *158:I *27:22 0
11 *158:I *34:35 0.000104212
12 *158:I *34:44 1.0415e-05
13 *158:I *40:10 5.61088e-05
14 *158:I *40:20 4.38393e-05
15 *158:I *41:38 2.76006e-05
*RES
1 phase_offset_imported *158:I 21.555 
*END

*D_NET *10 0.00346685
*CONN
*P read_en O
*I *166:Z O *D gf180mcu_fd_sc_mcu7t5v0__buf_2
*CAP
1 read_en 0.00113229
2 *166:Z 0.00113229
3 read_en *166:I 0.00113831
4 cal_start read_en 6.39593e-05
5 *8:18 read_en 0
*RES
1 *166:Z read_en 22.815 
*END

*D_NET *11 0.00558993
*CONN
*P rst_n I
*I *159:I I *D gf180mcu_fd_sc_mcu7t5v0__buf_1
*CAP
1 rst_n 0.00167002
2 *159:I 0.00167002
3 *159:I *135:A4 0
4 *159:I *136:A2 0.000180483
5 *159:I *136:B 0.000121621
6 *159:I *165:I 0.000223672
7 *159:I *23:10 0.000854379
8 *159:I *23:14 0.000134594
9 *159:I *38:10 0
10 *159:I *38:51 0
11 *159:I *46:20 0
12 *159:I *48:10 0.00058591
13 cal_start *159:I 0.000149218
*RES
1 rst_n *159:I 33.885 
*END

*D_NET *12 0.00354752
*CONN
*P soft_rst I
*I *160:I I *D gf180mcu_fd_sc_mcu7t5v0__buf_1
*CAP
1 soft_rst 0.00165823
2 *160:I 0.00165823
3 *160:I state_o[1] 0
4 *160:I state_o[2] 0.00010854
5 *160:I *141:A1 3.72839e-05
6 *160:I *163:I 8.52466e-05
*RES
1 soft_rst *160:I 31.095 
*END

*D_NET *13 0.00116726
*CONN
*P state_o[0] O
*I *162:Z O *D gf180mcu_fd_sc_mcu7t5v0__buf_2
*CAP
1 state_o[0] 0.000525873
2 *162:Z 0.000525873
3 state_o[0] *162:I 0.000115511
*RES
1 *162:Z state_o[0] 13.275 
*END

*D_NET *14 0.00102378
*CONN
*P state_o[1] O
*I *163:Z O *D gf180mcu_fd_sc_mcu7t5v0__buf_2
*CAP
1 state_o[1] 0.00051189
2 *163:Z 0.00051189
3 state_o[1] *164:I 0
4 *160:I state_o[1] 0
*RES
1 *163:Z state_o[1] 13.095 
*END

*D_NET *15 0.00197895
*CONN
*P state_o[2] O
*I *164:Z O *D gf180mcu_fd_sc_mcu7t5v0__buf_2
*CAP
1 state_o[2] 0.000935203
2 *164:Z 0.000935203
3 *160:I state_o[2] 0.00010854
*RES
1 *164:Z state_o[2] 16.335 
*END

*D_NET *16 0.00374801
*CONN
*I *147:D I *D gf180mcu_fd_sc_mcu7t5v0__dffrnq_1
*I *140:ZN O *D gf180mcu_fd_sc_mcu7t5v0__aoi21_1
*CAP
1 *147:D 0.000298576
2 *140:ZN 0.000298576
3 *147:D *128:I 0.000101988
4 *147:D *140:A1 0.000364365
5 *147:D *148:RN 0.00137074
6 *147:D *20:12 6.87519e-05
7 *147:D *34:19 8.00681e-05
8 *147:D *39:29 0.00116494
*RES
1 *140:ZN *147:D 23.76 
*END

*D_NET *17 0.00219949
*CONN
*I *148:D I *D gf180mcu_fd_sc_mcu7t5v0__dffrnq_1
*I *144:ZN O *D gf180mcu_fd_sc_mcu7t5v0__aoi211_1
*CAP
1 *148:D 0.000515538
2 *144:ZN 0.000515538
3 *148:D *143:A1 0
4 *148:D *144:A2 7.53993e-05
5 *148:D *149:D 0.000842798
6 *148:D *149:CLK 0.000109215
7 *148:D *39:55 0.000140998
*RES
1 *144:ZN *148:D 13.77 
*END

*D_NET *18 0.00268229
*CONN
*I *149:D I *D gf180mcu_fd_sc_mcu7t5v0__dffrnq_1
*I *146:ZN O *D gf180mcu_fd_sc_mcu7t5v0__aoi211_1
*CAP
1 *149:D 0.000205528
2 *146:ZN 0.000205528
3 *149:D *144:C 0.000766411
4 *149:D *145:A2 0.000643588
5 *149:D *39:55 1.84368e-05
6 *148:D *149:D 0.000842798
*RES
1 *146:ZN *149:D 21.96 
*END

*D_NET *19 0.00119498
*CONN
*I *139:B I *D gf180mcu_fd_sc_mcu7t5v0__oai21_1
*I *127:ZN O *D gf180mcu_fd_sc_mcu7t5v0__clkinv_1
*CAP
1 *139:B 0.000339902
2 *127:ZN 0.000339902
3 *139:B *142:A1 0.000215362
4 *139:B *142:A2 1.19491e-05
5 *139:B *31:12 4.94519e-05
6 *139:B *34:19 0.000183042
7 *139:B *41:8 8.68281e-06
8 *139:B *41:38 0
9 *158:I *139:B 4.66823e-05
*RES
1 *127:ZN *139:B 11.88 
*END

*D_NET *20 0.00510855
*CONN
*I *135:A2 I *D gf180mcu_fd_sc_mcu7t5v0__or4_1
*I *130:A2 I *D gf180mcu_fd_sc_mcu7t5v0__nor3_2
*I *128:ZN O *D gf180mcu_fd_sc_mcu7t5v0__clkinv_1
*CAP
1 *135:A2 0
2 *130:A2 0.000113819
3 *128:ZN 0.000989664
4 *20:12 0.00110348
5 *130:A2 *131:A1 0.000158798
6 *130:A2 *135:A1 3.12451e-05
7 *130:A2 *135:A4 0.000299724
8 *130:A2 *136:A2 0.000409657
9 *130:A2 *38:38 2.35868e-05
10 *130:A2 *40:33 0.000252915
11 *20:12 *128:I 0
12 *20:12 *131:A1 0.000264728
13 *20:12 *135:A1 1.56374e-05
14 *20:12 *140:A2 0.000230368
15 *20:12 *140:B 5.45898e-05
16 *20:12 *148:RN 0.000249073
17 *20:12 *161:I 0.000738229
18 *20:12 *39:14 8.47403e-05
19 *147:D *20:12 6.87519e-05
20 *157:I *130:A2 1.06549e-05
21 *157:I *20:12 8.88954e-06
22 *158:I *20:12 0
*RES
1 *128:ZN *20:12 21.6 
2 *20:12 *130:A2 16.38 
3 *20:12 *135:A2 4.5 
*END

*D_NET *21 0.00200351
*CONN
*I *138:B2 I *D gf180mcu_fd_sc_mcu7t5v0__aoi22_2
*I *129:ZN O *D gf180mcu_fd_sc_mcu7t5v0__clkinv_1
*CAP
1 *138:B2 0.00067803
2 *129:ZN 0.00067803
3 *138:B2 *133:A1 4.03581e-05
4 *138:B2 *133:A3 4.83776e-06
5 *138:B2 *136:A1 2.30981e-05
6 *138:B2 *136:B 0.000441303
7 *138:B2 *162:I 6.0526e-05
8 *138:B2 *38:40 3.68375e-05
9 cal_start *138:B2 1.98047e-05
10 *8:18 *138:B2 2.06876e-05
*RES
1 *129:ZN *138:B2 13.68 
*END

*D_NET *22 0.00213285
*CONN
*I *133:A2 I *D gf180mcu_fd_sc_mcu7t5v0__nor3_1
*I *131:Z O *D gf180mcu_fd_sc_mcu7t5v0__and2_1
*CAP
1 *133:A2 6.61343e-05
2 *131:Z 6.61343e-05
3 *133:A2 *129:I 0.0010157
4 cal_start *133:A2 0.000984883
*RES
1 *131:Z *133:A2 20.61 
*END

*D_NET *23 0.00595245
*CONN
*I *137:A2 I *D gf180mcu_fd_sc_mcu7t5v0__and2_1
*I *136:B I *D gf180mcu_fd_sc_mcu7t5v0__oai21_1
*I *133:A3 I *D gf180mcu_fd_sc_mcu7t5v0__nor3_1
*I *132:ZN O *D gf180mcu_fd_sc_mcu7t5v0__nor2_1
*CAP
1 *137:A2 0.000112147
2 *136:B 0.000248535
3 *133:A3 8.54859e-05
4 *132:ZN 0.000522165
5 *23:14 0.000507404
6 *23:10 0.000807695
7 *133:A3 *133:A1 3.99837e-05
8 *137:A2 *137:A1 4.82041e-05
9 *137:A2 *27:12 3.12857e-05
10 *23:10 *143:A1 9.76481e-06
11 *23:10 *151:I 1.348e-05
12 *23:10 *165:I 0.000125108
13 *23:10 *34:19 1.34641e-05
14 cal_start *136:B 0.000479076
15 cal_start *23:10 0.000721631
16 cal_start *23:14 0.000630288
17 *138:B2 *133:A3 4.83776e-06
18 *138:B2 *136:B 0.000441303
19 *159:I *136:B 0.000121621
20 *159:I *23:10 0.000854379
21 *159:I *23:14 0.000134594
*RES
1 *132:ZN *23:10 15.66 
2 *23:10 *23:14 1.98 
3 *23:14 *133:A3 9.45 
4 *23:14 *136:B 11.88 
5 *23:10 *137:A2 9.63 
*END

*D_NET *24 0.00326362
*CONN
*I *135:A4 I *D gf180mcu_fd_sc_mcu7t5v0__or4_1
*I *134:ZN O *D gf180mcu_fd_sc_mcu7t5v0__nor2_1
*CAP
1 *135:A4 0.000353813
2 *134:ZN 0.000353813
3 *135:A4 *136:A2 0.000174096
4 *135:A4 *165:I 2.51913e-05
5 *135:A4 *38:10 0.000380315
6 *135:A4 *38:25 0.00109638
7 *135:A4 *38:38 9.61471e-05
8 *135:A4 *40:33 0.000171937
9 *135:A4 *46:20 0.000309993
10 *135:A4 *48:10 2.20732e-06
11 *130:A2 *135:A4 0.000299724
12 *159:I *135:A4 0
*RES
1 *134:ZN *135:A4 23.13 
*END

*D_NET *25 0.00104691
*CONN
*I *138:A1 I *D gf180mcu_fd_sc_mcu7t5v0__aoi22_2
*I *135:Z O *D gf180mcu_fd_sc_mcu7t5v0__or4_1
*CAP
1 *138:A1 0.000219306
2 *135:Z 0.000219306
3 *138:A1 *130:A3 2.89427e-06
4 *138:A1 *27:12 0.000468511
5 *138:A1 *28:6 0.000118345
6 *138:A1 *40:20 1.85484e-05
*RES
1 *135:Z *138:A1 11.25 
*END

*D_NET *26 0.00196826
*CONN
*I *138:A2 I *D gf180mcu_fd_sc_mcu7t5v0__aoi22_2
*I *136:ZN O *D gf180mcu_fd_sc_mcu7t5v0__oai21_1
*CAP
1 *138:A2 0.000162375
2 *136:ZN 0.000162375
3 *138:A2 *130:A3 3.88458e-05
4 *138:A2 *136:A2 2.07943e-05
5 *138:A2 *38:38 0.000364886
6 *138:A2 *38:51 0.000455766
7 *138:A2 *38:55 0.000302293
8 *138:A2 *40:20 0.000266887
9 *154:I *138:A2 0.000101335
10 *8:18 *138:A2 9.27022e-05
*RES
1 *136:ZN *138:A2 21.24 
*END

*D_NET *27 0.00901656
*CONN
*I *138:B1 I *D gf180mcu_fd_sc_mcu7t5v0__aoi22_2
*I *143:A2 I *D gf180mcu_fd_sc_mcu7t5v0__oai21_1
*I *142:A2 I *D gf180mcu_fd_sc_mcu7t5v0__nand2_1
*I *137:Z O *D gf180mcu_fd_sc_mcu7t5v0__and2_1
*CAP
1 *138:B1 0.000169349
2 *143:A2 0
3 *142:A2 0.000489257
4 *137:Z 0.000500657
5 *27:22 0.00115694
6 *27:12 0.00133769
7 *138:B1 *148:RN 0.000966419
8 *138:B1 *39:10 0.00027781
9 *142:A2 *142:A1 9.90193e-05
10 *142:A2 *146:A2 0.000249777
11 *142:A2 *31:12 0.000846408
12 *142:A2 *34:19 3.71764e-06
13 *27:12 *130:A3 8.84623e-06
14 *27:12 *131:A2 2.20657e-05
15 *27:12 *137:A1 6.75054e-06
16 *27:12 *148:CLK 2.00709e-05
17 *27:12 *35:8 0.000332282
18 *27:12 *48:10 7.84041e-05
19 *27:22 *146:A1 0
20 *27:22 *146:A2 0.00105806
21 *27:22 *148:RN 0.000174497
22 *27:22 *148:CLK 0.000342913
23 *27:22 *28:6 0
24 *27:22 *39:10 4.22217e-05
25 *27:22 *39:55 0.000321661
26 *137:A2 *27:12 3.12857e-05
27 *138:A1 *27:12 0.000468511
28 *139:B *142:A2 1.19491e-05
29 *158:I *142:A2 0
30 *158:I *27:22 0
31 *8:18 *27:12 0
*RES
1 *137:Z *27:12 13.41 
2 *27:12 *27:22 15.39 
3 *27:22 *142:A2 12.96 
4 *27:22 *143:A2 9 
5 *27:12 *138:B1 11.61 
*END

*D_NET *28 0.00561025
*CONN
*I *146:A1 I *D gf180mcu_fd_sc_mcu7t5v0__aoi211_1
*I *161:I I *D gf180mcu_fd_sc_mcu7t5v0__clkbuf_2
*I *138:ZN O *D gf180mcu_fd_sc_mcu7t5v0__aoi22_2
*CAP
1 *146:A1 0.000648487
2 *161:I 0.000341978
3 *138:ZN 0.000122369
4 *28:6 0.00111283
5 *146:A1 *146:A2 0.000220751
6 *146:A1 *146:C 0.000419887
7 *146:A1 *153:I 0
8 *146:A1 *40:20 9.74183e-05
9 *146:A1 *40:68 0
10 *161:I *148:RN 3.04016e-05
11 *161:I *148:CLK 0.000567727
12 *161:I *39:10 0.000621168
13 *28:6 *40:20 0.000474243
14 *138:A1 *28:6 0.000118345
15 *150:I *146:A1 2.31656e-05
16 *158:I *161:I 4.17878e-05
17 *8:18 *146:A1 3.14593e-05
18 *20:12 *161:I 0.000738229
19 *27:22 *146:A1 0
20 *27:22 *28:6 0
*RES
1 *138:ZN *28:6 5.85 
2 *28:6 *161:I 18 
3 *28:6 *146:A1 10.17 
*END

*D_NET *29 0.00106047
*CONN
*I *140:B I *D gf180mcu_fd_sc_mcu7t5v0__aoi21_1
*I *139:ZN O *D gf180mcu_fd_sc_mcu7t5v0__oai21_1
*CAP
1 *140:B 0.000221438
2 *139:ZN 0.000221438
3 *140:B *140:A1 1.55466e-05
4 *140:B *140:A2 0.000496832
5 *140:B *142:A1 0
6 *140:B *34:19 5.06249e-05
7 *20:12 *140:B 5.45898e-05
*RES
1 *139:ZN *140:B 20.34 
*END

*D_NET *30 0.000692045
*CONN
*I *144:B I *D gf180mcu_fd_sc_mcu7t5v0__aoi211_1
*I *141:ZN O *D gf180mcu_fd_sc_mcu7t5v0__nor2_1
*CAP
1 *144:B 0.00019457
2 *141:ZN 0.00019457
3 *144:B *141:A1 3.55343e-05
4 *144:B *145:A2 8.56272e-05
5 *144:B *41:42 0.000181744
*RES
1 *141:ZN *144:B 19.71 
*END

*D_NET *31 0.0049534
*CONN
*I *146:A2 I *D gf180mcu_fd_sc_mcu7t5v0__aoi211_1
*I *143:B I *D gf180mcu_fd_sc_mcu7t5v0__oai21_1
*I *142:ZN O *D gf180mcu_fd_sc_mcu7t5v0__nand2_1
*CAP
1 *146:A2 0.000474797
2 *143:B 0
3 *142:ZN 0.000218455
4 *31:12 0.000693252
5 *146:A2 *127:I 0.000212618
6 *146:A2 *146:C 0.000221294
7 *146:A2 *153:I 5.38432e-05
8 *146:A2 *39:55 8.12857e-05
9 *146:A2 *47:19 0.00022921
10 *31:12 *127:I 0.000344205
11 *139:B *31:12 4.94519e-05
12 *142:A2 *146:A2 0.000249777
13 *142:A2 *31:12 0.000846408
14 *146:A1 *146:A2 0.000220751
15 *27:22 *146:A2 0.00105806
*RES
1 *142:ZN *31:12 12.15 
2 *31:12 *143:B 9 
3 *31:12 *146:A2 15.66 
*END

*D_NET *32 0.00184612
*CONN
*I *144:A2 I *D gf180mcu_fd_sc_mcu7t5v0__aoi211_1
*I *143:ZN O *D gf180mcu_fd_sc_mcu7t5v0__oai21_1
*CAP
1 *144:A2 0.000405076
2 *143:ZN 0.000405076
3 *144:A2 *127:I 2.65236e-05
4 *144:A2 *144:C 2.40587e-06
5 *144:A2 *149:CLK 3.01487e-05
6 *144:A2 *41:38 0.000345721
7 *144:A2 *41:42 0
8 *144:A2 *47:8 0.000540966
9 *144:A2 *47:19 1.47998e-05
10 *148:D *144:A2 7.53993e-05
*RES
1 *143:ZN *144:A2 21.51 
*END

*D_NET *33 0.000696036
*CONN
*I *146:B I *D gf180mcu_fd_sc_mcu7t5v0__aoi211_1
*I *145:ZN O *D gf180mcu_fd_sc_mcu7t5v0__nor2_1
*CAP
1 *146:B 0.000121424
2 *145:ZN 0.000121424
3 *146:B *145:A2 0.000453188
4 *146:B *163:I 0
*RES
1 *145:ZN *146:B 19.35 
*END

*D_NET *34 0.00350736
*CONN
*I *152:I I *D gf180mcu_fd_sc_mcu7t5v0__clkbuf_16
*I *151:I I *D gf180mcu_fd_sc_mcu7t5v0__clkbuf_16
*I *150:Z O *D gf180mcu_fd_sc_mcu7t5v0__clkbuf_16
*CAP
1 *152:I 0.000111397
2 *151:I 7.99554e-05
3 *150:Z 8.25511e-05
4 *34:44 0.00030365
5 *34:35 0.000274804
6 *34:19 0.000820676
7 *34:6 0.000740721
8 *151:I *134:A1 8.12856e-06
9 *151:I *165:I 4.45837e-05
10 *151:I *46:20 9.76593e-05
11 *152:I *41:38 4.33582e-05
12 *34:19 *139:A1 2.84157e-05
13 *34:19 *140:A1 5.39793e-05
14 *34:19 *142:A1 4.77549e-05
15 *34:19 *38:10 2.29718e-05
16 *34:19 *46:20 0.00018663
17 *34:35 *41:38 4.77871e-05
18 *34:44 *41:38 5.33084e-05
19 *139:B *34:19 0.000183042
20 *140:B *34:19 5.06249e-05
21 *142:A2 *34:19 3.71764e-06
22 *147:D *34:19 8.00681e-05
23 *158:I *34:35 0.000104212
24 *158:I *34:44 1.0415e-05
25 *23:10 *151:I 1.348e-05
26 *23:10 *34:19 1.34641e-05
*RES
1 *150:Z *34:6 9 
2 *34:6 *34:19 10.08 
3 *34:19 *151:I 5.31 
4 *150:Z *34:35 5.31 
5 *34:35 *34:44 1.35 
6 *34:44 *152:I 5.31 
*END

*D_NET *35 0.00300025
*CONN
*I *148:CLK I *D gf180mcu_fd_sc_mcu7t5v0__dffrnq_1
*I *147:CLK I *D gf180mcu_fd_sc_mcu7t5v0__dffrnq_1
*I *151:Z O *D gf180mcu_fd_sc_mcu7t5v0__clkbuf_16
*CAP
1 *148:CLK 0.000178765
2 *147:CLK 0
3 *151:Z 0.000280848
4 *35:8 0.000459612
5 *148:CLK *39:14 0.000353649
6 *148:CLK *39:55 0.000150744
7 *35:8 *131:A1 7.83042e-06
8 *35:8 *131:A2 0.000202523
9 *35:8 *132:A2 1.09524e-05
10 *35:8 *39:14 3.22348e-05
11 *158:I *148:CLK 6.00973e-05
12 *161:I *148:CLK 0.000567727
13 *27:12 *148:CLK 2.00709e-05
14 *27:12 *35:8 0.000332282
15 *27:22 *148:CLK 0.000342913
*RES
1 *151:Z *35:8 7.2 
2 *35:8 *147:CLK 4.5 
3 *35:8 *148:CLK 16.38 
*END

*D_NET *36 0.00184946
*CONN
*I *153:I I *D gf180mcu_fd_sc_mcu7t5v0__clkbuf_2
*I *149:CLK I *D gf180mcu_fd_sc_mcu7t5v0__dffrnq_1
*I *152:Z O *D gf180mcu_fd_sc_mcu7t5v0__clkbuf_16
*CAP
1 *153:I 0.000209935
2 *149:CLK 0.000104436
3 *152:Z 0.000314372
4 *149:CLK *41:38 0
5 *149:CLK *47:8 0.000132459
6 *153:I *164:I 0
7 *153:I *39:55 0.000895051
8 *144:A2 *149:CLK 3.01487e-05
9 *146:A1 *153:I 0
10 *146:A2 *153:I 5.38432e-05
11 *148:D *149:CLK 0.000109215
*RES
1 *152:Z *149:CLK 10.17 
2 *152:Z *153:I 11.43 
*END

*D_NET *37 0.00228718
*CONN
*I *136:A2 I *D gf180mcu_fd_sc_mcu7t5v0__oai21_1
*I *154:Z O *D gf180mcu_fd_sc_mcu7t5v0__buf_1
*CAP
1 *136:A2 0.00043216
2 *154:Z 0.00043216
3 *136:A2 *38:38 6.84426e-06
4 *136:A2 *38:51 0.000158079
5 *136:A2 *38:55 0.000127759
6 *136:A2 *48:10 0.000345152
7 *130:A2 *136:A2 0.000409657
8 *135:A4 *136:A2 0.000174096
9 *138:A2 *136:A2 2.07943e-05
10 *159:I *136:A2 0.000180483
*RES
1 *154:Z *136:A2 24.21 
*END

*D_NET *38 0.0149516
*CONN
*I *140:A1 I *D gf180mcu_fd_sc_mcu7t5v0__aoi21_1
*I *162:I I *D gf180mcu_fd_sc_mcu7t5v0__buf_2
*I *133:A1 I *D gf180mcu_fd_sc_mcu7t5v0__nor3_1
*I *130:A1 I *D gf180mcu_fd_sc_mcu7t5v0__nor3_2
*I *137:A1 I *D gf180mcu_fd_sc_mcu7t5v0__and2_1
*I *136:A1 I *D gf180mcu_fd_sc_mcu7t5v0__oai21_1
*I *135:A1 I *D gf180mcu_fd_sc_mcu7t5v0__or4_1
*I *139:A1 I *D gf180mcu_fd_sc_mcu7t5v0__oai21_1
*I *147:Q O *D gf180mcu_fd_sc_mcu7t5v0__dffrnq_1
*CAP
1 *140:A1 0.00015753
2 *162:I 0.000916089
3 *133:A1 0.00036887
4 *130:A1 0
5 *137:A1 0.000385594
6 *136:A1 3.71194e-05
7 *135:A1 5.66582e-05
8 *139:A1 0.000235091
9 *147:Q 0
10 *38:55 0.000417886
11 *38:51 0.000446994
12 *38:40 0.000178037
13 *38:38 0.00122504
14 *38:25 0.000590249
15 *38:10 0.000765232
16 *38:4 0.000367945
17 *137:A1 *48:10 6.8618e-06
18 *139:A1 *132:A1 8.49143e-05
19 *139:A1 *143:A1 0
20 *139:A1 *39:29 0.000200013
21 *139:A1 *46:20 0.000415761
22 *140:A1 *128:I 0
23 *162:I *145:A1 5.74621e-06
24 *162:I *148:RN 5.85933e-05
25 *162:I *149:RN 0.000109981
26 *162:I *40:10 0.000340629
27 *162:I *40:68 5.79193e-05
28 *38:10 *128:I 0.000656427
29 *38:25 *128:I 9.39061e-05
30 *38:25 *132:A2 0.000261854
31 *38:25 *39:29 4.72614e-05
32 *38:38 *132:A2 0.000288831
33 *38:38 *40:33 0.000708762
34 state_o[0] *162:I 0.000115511
35 *130:A2 *135:A1 3.12451e-05
36 *130:A2 *38:38 2.35868e-05
37 *133:A3 *133:A1 3.99837e-05
38 *135:A4 *38:10 0.000380315
39 *135:A4 *38:25 0.00109638
40 *135:A4 *38:38 9.61471e-05
41 *136:A2 *38:38 6.84426e-06
42 *136:A2 *38:51 0.000158079
43 *136:A2 *38:55 0.000127759
44 *137:A2 *137:A1 4.82041e-05
45 *138:A2 *38:38 0.000364886
46 *138:A2 *38:51 0.000455766
47 *138:A2 *38:55 0.000302293
48 *138:B2 *133:A1 4.03581e-05
49 *138:B2 *136:A1 2.30981e-05
50 *138:B2 *162:I 6.0526e-05
51 *138:B2 *38:40 3.68375e-05
52 *140:B *140:A1 1.55466e-05
53 *147:D *140:A1 0.000364365
54 *154:I *38:38 0.000157106
55 *157:I *135:A1 5.41407e-05
56 *157:I *38:38 0.000680738
57 *159:I *38:10 0
58 *159:I *38:51 0
59 *8:18 *133:A1 0.000323065
60 *8:18 *137:A1 0.000335268
61 *8:18 *162:I 0
62 *20:12 *135:A1 1.56374e-05
63 *27:12 *137:A1 6.75054e-06
64 *34:19 *139:A1 2.84157e-05
65 *34:19 *140:A1 5.39793e-05
66 *34:19 *38:10 2.29718e-05
*RES
1 *147:Q *38:4 4.5 
2 *38:4 *38:10 6.84 
3 *38:10 *139:A1 11.16 
4 *38:10 *38:25 3.42 
5 *38:25 *135:A1 9.45 
6 *38:25 *38:38 9.63 
7 *38:38 *38:40 0.63 
8 *38:40 *136:A1 4.77 
9 *38:40 *38:51 5.85 
10 *38:51 *38:55 5.31 
11 *38:55 *137:A1 7.29 
12 *38:55 *130:A1 4.5 
13 *38:51 *133:A1 11.88 
14 *38:38 *162:I 11.97 
15 *38:4 *140:A1 6.21 
*END

*D_NET *39 0.0153762
*CONN
*I *163:I I *D gf180mcu_fd_sc_mcu7t5v0__buf_2
*I *141:A1 I *D gf180mcu_fd_sc_mcu7t5v0__nor2_1
*I *128:I I *D gf180mcu_fd_sc_mcu7t5v0__clkinv_1
*I *132:A1 I *D gf180mcu_fd_sc_mcu7t5v0__nor2_1
*I *131:A1 I *D gf180mcu_fd_sc_mcu7t5v0__and2_1
*I *148:Q O *D gf180mcu_fd_sc_mcu7t5v0__dffrnq_1
*CAP
1 *163:I 0.000410381
2 *141:A1 0.000646438
3 *128:I 0.000697694
4 *132:A1 0.000129783
5 *131:A1 0.000384908
6 *148:Q 0.000342485
7 *39:55 0.00165808
8 *39:29 0.00111771
9 *39:14 0.000808171
10 *39:10 0.00107678
11 *131:A1 *129:I 4.6613e-06
12 *131:A1 *131:A2 0.000338645
13 *131:A1 *132:A2 0.000146006
14 *132:A1 *132:A2 1.44426e-06
15 *132:A1 *143:A1 0
16 *132:A1 *46:20 4.16602e-05
17 *141:A1 *145:A2 0
18 *141:A1 *41:38 4.6613e-06
19 *141:A1 *47:8 9.93078e-05
20 *163:I *145:A2 0
21 *39:10 *148:RN 3.01475e-05
22 *39:10 *40:10 0.000215601
23 *39:10 *40:20 0.000173898
24 *39:14 *131:A2 2.26729e-05
25 *39:29 *132:A2 0.00018443
26 *39:29 *143:A1 0
27 *39:29 *148:RN 5.00297e-05
28 *39:55 *144:C 0.000369185
29 *39:55 *47:8 0
30 *130:A2 *131:A1 0.000158798
31 *138:B1 *39:10 0.00027781
32 *139:A1 *132:A1 8.49143e-05
33 *139:A1 *39:29 0.000200013
34 *140:A1 *128:I 0
35 *144:B *141:A1 3.55343e-05
36 *146:A2 *39:55 8.12857e-05
37 *146:B *163:I 0
38 *147:D *128:I 0.000101988
39 *147:D *39:29 0.00116494
40 *148:D *39:55 0.000140998
41 *148:CLK *39:14 0.000353649
42 *148:CLK *39:55 0.000150744
43 *149:D *39:55 1.84368e-05
44 *153:I *39:55 0.000895051
45 *157:I *131:A1 8.74174e-05
46 *157:I *39:10 0
47 *157:I *39:29 0.000375166
48 *160:I *141:A1 3.72839e-05
49 *160:I *163:I 8.52466e-05
50 *161:I *39:10 0.000621168
51 *20:12 *128:I 0
52 *20:12 *131:A1 0.000264728
53 *20:12 *39:14 8.47403e-05
54 *27:22 *39:10 4.22217e-05
55 *27:22 *39:55 0.000321661
56 *35:8 *131:A1 7.83042e-06
57 *35:8 *39:14 3.22348e-05
58 *38:10 *128:I 0.000656427
59 *38:25 *128:I 9.39061e-05
60 *38:25 *39:29 4.72614e-05
*RES
1 *148:Q *39:10 17.91 
2 *39:10 *39:14 1.62 
3 *39:14 *131:A1 8.01 
4 *39:14 *39:29 13.14 
5 *39:29 *132:A1 5.4 
6 *39:29 *128:I 18.54 
7 *39:10 *39:55 11.25 
8 *39:55 *141:A1 13.23 
9 *39:55 *163:I 11.79 
*END

*D_NET *40 0.0116435
*CONN
*I *145:A1 I *D gf180mcu_fd_sc_mcu7t5v0__nor2_1
*I *164:I I *D gf180mcu_fd_sc_mcu7t5v0__buf_2
*I *131:A2 I *D gf180mcu_fd_sc_mcu7t5v0__and2_1
*I *132:A2 I *D gf180mcu_fd_sc_mcu7t5v0__nor2_1
*I *135:A3 I *D gf180mcu_fd_sc_mcu7t5v0__or4_1
*I *130:A3 I *D gf180mcu_fd_sc_mcu7t5v0__nor3_2
*I *149:Q O *D gf180mcu_fd_sc_mcu7t5v0__dffrnq_1
*CAP
1 *145:A1 5.12475e-05
2 *164:I 0.00049994
3 *131:A2 0.000306857
4 *132:A2 0.000425721
5 *135:A3 0
6 *130:A3 2.808e-05
7 *149:Q 0.000426581
8 *40:68 0.00101503
9 *40:33 0.000799213
10 *40:20 0.000503298
11 *40:10 0.00129901
12 *132:A2 *143:A1 0.000147435
13 *164:I *146:C 0.000169044
14 *40:68 *146:C 4.0573e-05
15 *40:68 *149:RN 0.000827549
16 state_o[1] *164:I 0
17 *130:A2 *40:33 0.000252915
18 *131:A1 *131:A2 0.000338645
19 *131:A1 *132:A2 0.000146006
20 *132:A1 *132:A2 1.44426e-06
21 *135:A4 *40:33 0.000171937
22 *138:A1 *130:A3 2.89427e-06
23 *138:A1 *40:20 1.85484e-05
24 *138:A2 *130:A3 3.88458e-05
25 *138:A2 *40:20 0.000266887
26 *146:A1 *40:20 9.74183e-05
27 *146:A1 *40:68 0
28 *150:I *40:68 9.1886e-05
29 *153:I *164:I 0
30 *157:I *132:A2 0.000428239
31 *158:I *40:10 5.61088e-05
32 *158:I *40:20 4.38393e-05
33 *162:I *145:A1 5.74621e-06
34 *162:I *40:10 0.000340629
35 *162:I *40:68 5.79193e-05
36 *8:18 *40:20 5.33434e-05
37 *8:18 *40:68 0.000115967
38 *27:12 *130:A3 8.84623e-06
39 *27:12 *131:A2 2.20657e-05
40 *28:6 *40:20 0.000474243
41 *35:8 *131:A2 0.000202523
42 *35:8 *132:A2 1.09524e-05
43 *38:25 *132:A2 0.000261854
44 *38:38 *132:A2 0.000288831
45 *38:38 *40:33 0.000708762
46 *39:10 *40:10 0.000215601
47 *39:10 *40:20 0.000173898
48 *39:14 *131:A2 2.26729e-05
49 *39:29 *132:A2 0.00018443
*RES
1 *149:Q *40:10 12.78 
2 *40:10 *40:20 8.28 
3 *40:20 *130:A3 4.77 
4 *40:20 *40:33 10.89 
5 *40:33 *135:A3 4.5 
6 *40:33 *132:A2 17.82 
7 *40:33 *131:A2 7.38 
8 *40:10 *40:68 9.09 
9 *40:68 *164:I 8.19 
10 *40:68 *145:A1 5.04 
*END

*D_NET *41 0.00648228
*CONN
*I *141:A2 I *D gf180mcu_fd_sc_mcu7t5v0__nor2_1
*I *145:A2 I *D gf180mcu_fd_sc_mcu7t5v0__nor2_1
*I *144:A1 I *D gf180mcu_fd_sc_mcu7t5v0__aoi211_1
*I *139:A2 I *D gf180mcu_fd_sc_mcu7t5v0__oai21_1
*I *140:A2 I *D gf180mcu_fd_sc_mcu7t5v0__aoi21_1
*I *161:Z O *D gf180mcu_fd_sc_mcu7t5v0__clkbuf_2
*CAP
1 *141:A2 0
2 *145:A2 0.000375631
3 *144:A1 0
4 *139:A2 0
5 *140:A2 7.77689e-05
6 *161:Z 0
7 *41:42 0.000737951
8 *41:38 0.0010825
9 *41:8 0.000244875
10 *41:4 0.000887284
11 *41:8 *143:A1 0
12 *41:38 *143:A1 0.000424441
13 *41:38 *47:8 2.76233e-05
14 *139:B *41:8 8.68281e-06
15 *139:B *41:38 0
16 *140:B *140:A2 0.000496832
17 *141:A1 *145:A2 0
18 *141:A1 *41:38 4.6613e-06
19 *144:A2 *41:38 0.000345721
20 *144:A2 *41:42 0
21 *144:B *145:A2 8.56272e-05
22 *144:B *41:42 0.000181744
23 *146:B *145:A2 0.000453188
24 *149:D *145:A2 0.000643588
25 *149:CLK *41:38 0
26 *152:I *41:38 4.33582e-05
27 *158:I *140:A2 1.73891e-06
28 *158:I *41:38 2.76006e-05
29 *163:I *145:A2 0
30 *20:12 *140:A2 0.000230368
31 *34:35 *41:38 4.77871e-05
32 *34:44 *41:38 5.33084e-05
*RES
1 *161:Z *41:4 4.5 
2 *41:4 *41:8 1.08 
3 *41:8 *140:A2 15.03 
4 *41:8 *139:A2 4.5 
5 *41:4 *41:38 6.21 
6 *41:38 *41:42 6.39 
7 *41:42 *144:A1 9 
8 *41:42 *145:A2 12.87 
9 *41:38 *141:A2 4.5 
*END

*D_NET *42 0.00127642
*CONN
*I *134:A2 I *D gf180mcu_fd_sc_mcu7t5v0__nor2_1
*I *155:Z O *D gf180mcu_fd_sc_mcu7t5v0__buf_1
*CAP
1 *134:A2 0.000638209
2 *155:Z 0.000638209
*RES
1 *155:Z *134:A2 13.5 
*END

*D_NET *43 0.00108672
*CONN
*I *134:A1 I *D gf180mcu_fd_sc_mcu7t5v0__nor2_1
*I *156:Z O *D gf180mcu_fd_sc_mcu7t5v0__buf_1
*CAP
1 *134:A1 0.000402697
2 *156:Z 0.000402697
3 *134:A1 *165:I 0
4 *134:A1 *46:20 0.000240983
5 cal_start *134:A1 3.22122e-05
6 *151:I *134:A1 8.12856e-06
*RES
1 *156:Z *134:A1 12.06 
*END

*D_NET *44 0.00353116
*CONN
*I *129:I I *D gf180mcu_fd_sc_mcu7t5v0__clkinv_1
*I *157:Z O *D gf180mcu_fd_sc_mcu7t5v0__buf_1
*CAP
1 *129:I 0.00025711
2 *157:Z 0.00025711
3 *129:I *166:I 0.00139296
4 cal_start *129:I 0.000563812
5 *131:A1 *129:I 4.6613e-06
6 *133:A2 *129:I 0.0010157
7 *157:I *129:I 3.98088e-05
*RES
1 *157:Z *129:I 24.12 
*END

*D_NET *45 0.000787106
*CONN
*I *142:A1 I *D gf180mcu_fd_sc_mcu7t5v0__nand2_1
*I *158:Z O *D gf180mcu_fd_sc_mcu7t5v0__buf_1
*CAP
1 *142:A1 0.000193128
2 *158:Z 0.000193128
3 *139:B *142:A1 0.000215362
4 *140:B *142:A1 0
5 *142:A2 *142:A1 9.90193e-05
6 *158:I *142:A1 3.87145e-05
7 *34:19 *142:A1 4.77549e-05
*RES
1 *158:Z *142:A1 19.62 
*END

*D_NET *46 0.00795746
*CONN
*I *149:RN I *D gf180mcu_fd_sc_mcu7t5v0__dffrnq_1
*I *147:RN I *D gf180mcu_fd_sc_mcu7t5v0__dffrnq_1
*I *148:RN I *D gf180mcu_fd_sc_mcu7t5v0__dffrnq_1
*I *159:Z O *D gf180mcu_fd_sc_mcu7t5v0__buf_1
*CAP
1 *149:RN 0.000188831
2 *147:RN 0
3 *148:RN 0.000815004
4 *159:Z 0.00035283
5 *46:20 0.000979003
6 *132:A1 *46:20 4.16602e-05
7 *134:A1 *46:20 0.000240983
8 *135:A4 *46:20 0.000309993
9 *138:B1 *148:RN 0.000966419
10 *139:A1 *46:20 0.000415761
11 *147:D *148:RN 0.00137074
12 *151:I *46:20 9.76593e-05
13 *157:I *148:RN 0.000425559
14 *159:I *46:20 0
15 *161:I *148:RN 3.04016e-05
16 *162:I *148:RN 5.85933e-05
17 *162:I *149:RN 0.000109981
18 *8:18 *148:RN 2.00277e-05
19 *8:18 *149:RN 1.60909e-05
20 *20:12 *148:RN 0.000249073
21 *27:22 *148:RN 0.000174497
22 *34:19 *46:20 0.00018663
23 *39:10 *148:RN 3.01475e-05
24 *39:29 *148:RN 5.00297e-05
25 *40:68 *149:RN 0.000827549
*RES
1 *159:Z *46:20 17.64 
2 *46:20 *148:RN 22.14 
3 *46:20 *147:RN 4.5 
4 *148:RN *149:RN 11.43 
*END

*D_NET *47 0.00687877
*CONN
*I *146:C I *D gf180mcu_fd_sc_mcu7t5v0__aoi211_1
*I *144:C I *D gf180mcu_fd_sc_mcu7t5v0__aoi211_1
*I *127:I I *D gf180mcu_fd_sc_mcu7t5v0__clkinv_1
*I *160:Z O *D gf180mcu_fd_sc_mcu7t5v0__buf_1
*CAP
1 *146:C 0.00050082
2 *144:C 0.000116155
3 *127:I 0.0004411
4 *160:Z 0.000449418
5 *47:19 0.000740609
6 *47:8 0.00101415
7 *141:A1 *47:8 9.93078e-05
8 *144:A2 *127:I 2.65236e-05
9 *144:A2 *144:C 2.40587e-06
10 *144:A2 *47:8 0.000540966
11 *144:A2 *47:19 1.47998e-05
12 *146:A1 *146:C 0.000419887
13 *146:A2 *127:I 0.000212618
14 *146:A2 *146:C 0.000221294
15 *146:A2 *47:19 0.00022921
16 *149:D *144:C 0.000766411
17 *149:CLK *47:8 0.000132459
18 *164:I *146:C 0.000169044
19 *31:12 *127:I 0.000344205
20 *39:55 *144:C 0.000369185
21 *39:55 *47:8 0
22 *40:68 *146:C 4.0573e-05
23 *41:38 *47:8 2.76233e-05
*RES
1 *160:Z *47:8 12.87 
2 *47:8 *127:I 12.51 
3 *47:8 *47:19 1.35 
4 *47:19 *144:C 11.43 
5 *47:19 *146:C 13.68 
*END

*D_NET *48 0.00555024
*CONN
*I *143:A1 I *D gf180mcu_fd_sc_mcu7t5v0__oai21_1
*I *165:I I *D gf180mcu_fd_sc_mcu7t5v0__buf_2
*I *130:ZN O *D gf180mcu_fd_sc_mcu7t5v0__nor3_2
*CAP
1 *143:A1 0.00099138
2 *165:I 0.000410025
3 *130:ZN 0.00035651
4 *48:10 0.00175791
5 cal_start *165:I 1.56779e-05
6 *132:A1 *143:A1 0
7 *132:A2 *143:A1 0.000147435
8 *134:A1 *165:I 0
9 *135:A4 *165:I 2.51913e-05
10 *135:A4 *48:10 2.20732e-06
11 *136:A2 *48:10 0.000345152
12 *137:A1 *48:10 6.8618e-06
13 *139:A1 *143:A1 0
14 *148:D *143:A1 0
15 *151:I *165:I 4.45837e-05
16 *157:I *143:A1 0
17 *159:I *165:I 0.000223672
18 *159:I *48:10 0.00058591
19 *23:10 *143:A1 9.76481e-06
20 *23:10 *165:I 0.000125108
21 *27:12 *48:10 7.84041e-05
22 *39:29 *143:A1 0
23 *41:8 *143:A1 0
24 *41:38 *143:A1 0.000424441
*RES
1 *130:ZN *48:10 13.32 
2 *48:10 *165:I 12.24 
3 *48:10 *143:A1 15.66 
*END

*D_NET *49 0.00320304
*CONN
*I *166:I I *D gf180mcu_fd_sc_mcu7t5v0__buf_2
*I *133:ZN O *D gf180mcu_fd_sc_mcu7t5v0__nor3_1
*CAP
1 *166:I 0.000263714
2 *133:ZN 0.000263714
3 cal_start *166:I 0.000144342
4 read_en *166:I 0.00113831
5 *129:I *166:I 0.00139296
*RES
1 *133:ZN *166:I 23.13 
*END
